     Program PWSCF v.6.4.1 starts on  7Nov2020 at 10:40: 5

     R & G space division:  proc/nbgrp/npool/nimage =       2
     Waiting for input...
     Reading input from standard input

     Current dimensions of program PWSCF are:
     Max number of different atomic species (ntypx) = 10
     Max number of k-points (npk) =  40000
     Max angular momentum in pseudopotentials (lmaxx) =  3
               file C.pbe-n-kjpaw_psl.1.0.0.UPF: wavefunction(s)  2S 2P renormalized

     Subspace diagonalization in iterative solution of the eigenvalue problem:
     a serial algorithm will be used

     Found symmetry operation: I + (  0.0000  0.5000 -0.5000)
     This is a supercell, fractional translations are disabled
     Message from routine setup:
     DEPRECATED: symmetry with ibrav=0, use correct ibrav instead

     bravais-lattice index     =            0
     lattice parameter (alat)  =       6.7533  a.u.
     unit-cell volume          =     308.0027 (a.u.)^3
     number of atoms/cell      =            8
     number of atomic types    =            1
     number of electrons       =        32.00
     number of Kohn-Sham states=           20
     kinetic-energy cutoff     =      40.0000  Ry
     charge density cutoff     =     326.0000  Ry
     convergence threshold     =      1.0E-06
     mixing beta               =       0.7000
     number of iterations used =            8  plain     mixing
     Exchange-correlation      = SLA PW PBX PBC ( 1  4  3  4 0 0)
     nstep                     =           50

     celldm(1)=   6.753333  celldm(2)=   0.000000  celldm(3)=   0.000000
     celldm(4)=   0.000000  celldm(5)=   0.000000  celldm(6)=   0.000000

     crystal axes: (cart. coord. in units of alat)
               a(1) = (   1.000000   0.000000   0.000000 )
               a(2) = (   0.000000   1.000000   0.000000 )
               a(3) = (   0.000000   0.000000   1.000000 )

     reciprocal axes: (cart. coord. in units 2 pi/alat)
               b(1) = (  1.000000  0.000000  0.000000 )
               b(2) = (  0.000000  1.000000  0.000000 )
               b(3) = (  0.000000  0.000000  1.000000 )

     PseudoPot. # 1 for C  read from file:
     ./potentials/C.pbe-n-kjpaw_psl.1.0.0.UPF
     MD5 check sum: 5f16ad9a65e90284d1d834d4ab3b0f7d
     Pseudo is Projector augmented-wave + core cor, Zval =  4.0
     Generated using "atomic" code by A. Dal Corso v.6.3
     Shape of augmentation charge: PSQ
     Using radial grid of 1073 points,  4 beta functions with:
                l(1) =   0
                l(2) =   0
                l(3) =   1
                l(4) =   1
     Q(r) pseudized with 0 coefficients

     atomic species   valence    mass     pseudopotential
        C              4.00    12.01060     C ( 1.00)

     Starting magnetic structure
     atomic species   magnetization
        C            1.000

     24 Sym. Ops. (no inversion) found

   Cartesian axes

     site n.     atom                  positions (alat units)
         1           C   tau(   1) = (   0.2500000   0.7500000   0.2500000  )
         2           C   tau(   2) = (   0.0000000   0.0000000   0.5000000  )
         3           C   tau(   3) = (   0.2500000   0.2500000   0.7500000  )
         4           C   tau(   4) = (   0.0000000   0.5000000   0.0000000  )
         5           C   tau(   5) = (   0.7500000   0.7500000   0.7500000  )
         6           C   tau(   6) = (   0.5000000   0.0000000   0.0000000  )
         7           C   tau(   7) = (   0.7500000   0.2500000   0.2500000  )
         8           C   tau(   8) = (   0.5000000   0.5000000   0.5000000  )

     number of k points=    20  Methfessel-Paxton smearing, width (Ry)=  0.0200
                       cart. coord. in units 2pi/alat
        k(    1) = (   0.0625000   0.0625000   0.0625000), wk =   0.0156250
        k(    2) = (   0.0625000   0.0625000   0.1875000), wk =   0.0468750
        k(    3) = (   0.0625000   0.0625000   0.3125000), wk =   0.0468750
        k(    4) = (   0.0625000   0.0625000   0.4375000), wk =   0.0468750
        k(    5) = (   0.0625000   0.1875000   0.1875000), wk =   0.0468750
        k(    6) = (   0.0625000   0.1875000   0.3125000), wk =   0.0937500
        k(    7) = (   0.0625000   0.1875000   0.4375000), wk =   0.0937500
        k(    8) = (   0.0625000   0.3125000   0.3125000), wk =   0.0468750
        k(    9) = (   0.0625000   0.3125000   0.4375000), wk =   0.0937500
        k(   10) = (   0.0625000   0.4375000   0.4375000), wk =   0.0468750
        k(   11) = (   0.1875000   0.1875000   0.1875000), wk =   0.0156250
        k(   12) = (   0.1875000   0.1875000   0.3125000), wk =   0.0468750
        k(   13) = (   0.1875000   0.1875000   0.4375000), wk =   0.0468750
        k(   14) = (   0.1875000   0.3125000   0.3125000), wk =   0.0468750
        k(   15) = (   0.1875000   0.3125000   0.4375000), wk =   0.0937500
        k(   16) = (   0.1875000   0.4375000   0.4375000), wk =   0.0468750
        k(   17) = (   0.3125000   0.3125000   0.3125000), wk =   0.0156250
        k(   18) = (   0.3125000   0.3125000   0.4375000), wk =   0.0468750
        k(   19) = (   0.3125000   0.4375000   0.4375000), wk =   0.0468750
        k(   20) = (   0.4375000   0.4375000   0.4375000), wk =   0.0156250

     Check: negative core charge=   -0.000015

     Initial potential from superposition of free atoms

     starting charge   31.99967, renormalised to   32.00000

     negative rho (up, down):  0.000E+00 3.605E-01
     Starting wfcs are   32 randomized atomic wfcs
     Checking if some PAW data can be deallocated...

     Self-consistent Calculation

     iteration #  1     ecut=    40.00 Ry     beta= 0.70
     Davidson diagonalization with overlap
     ethr =  1.00E-02,  avg # of iterations =  2.2

     total energy              =    -146.42191682 Ry
     Harris-Foulkes estimate   =    -140.98019755 Ry
     estimated scf accuracy    <       1.73088406 Ry

     total magnetization       =     2.08 Bohr mag/cell
     absolute magnetization    =     2.08 Bohr mag/cell

[...]

     Magnetic moment per site:
     atom:    1    charge:    2.0180    magn:   -0.0000    constr:    0.0000
     atom:    2    charge:    2.0180    magn:    0.0000    constr:    0.0000
     atom:    3    charge:    2.0180    magn:   -0.0000    constr:    0.0000
     atom:    4    charge:    2.0180    magn:    0.0000    constr:    0.0000
     atom:    5    charge:    2.0180    magn:   -0.0000    constr:    0.0000
     atom:    6    charge:    2.0180    magn:    0.0000    constr:    0.0000
     atom:    7    charge:    2.0180    magn:   -0.0000    constr:    0.0000
     atom:    8    charge:    2.0180    magn:    0.0000    constr:    0.0000

     End of self-consistent calculation

 ------ SPIN UP ------------

          k = 0.0625 0.0625 0.0625 (  1327 PWs)   bands (ev):

    -8.0474  -0.4066  -0.4065  -0.4065   1.5658   1.5660   1.5660   6.6521
     6.6522   6.6522   7.0732   7.0732   7.0733  12.5168  13.0578  13.0578
    17.9605  17.9605  17.9605  18.7229

[...]

 ------ SPIN DOWN ----------

[...]

     the Fermi energy is    15.0791 ev

!    total energy              =    -147.46618308 Ry
     Harris-Foulkes estimate   =    -147.46618319 Ry
     estimated scf accuracy    <       0.00000027 Ry

     total all-electron energy =      -609.578961 Ry

     The total energy is the sum of the following terms:

     one-electron contribution =      33.61356618 Ry
     hartree contribution      =       7.78522669 Ry
     xc contribution           =     -37.46454249 Ry
     ewald contribution        =    -102.09923477 Ry
     one-center paw contrib.   =     -49.30119870 Ry
     smearing contrib. (-TS)   =       0.00000000 Ry

[...]

     convergence has been achieved in   6 iterations

     Forces acting on atoms (cartesian axes, Ry/au):

     atom    1 type  1   force =    -0.00001488    0.00001488   -0.00001488
     atom    2 type  1   force =     0.00000000    0.00000000    0.00000000
     atom    3 type  1   force =    -0.00001488   -0.00001488    0.00001488
     atom    4 type  1   force =     0.00000000    0.00000000    0.00000000
     atom    5 type  1   force =     0.00001488    0.00001488    0.00001488
     atom    6 type  1   force =     0.00000000    0.00000000    0.00000000
     atom    7 type  1   force =     0.00001488   -0.00001488   -0.00001488
     atom    8 type  1   force =     0.00000000    0.00000000    0.00000000

     Total force =     0.000052     Total SCF correction =     0.000113
     SCF correction compared to forces is large: reduce conv_thr to get better values

     Computing stress (Cartesian axis) and pressure

          total   stress  (Ry/bohr**3)                   (kbar)     P=  -12.79
  -0.00008696   0.00000000   0.00000000        -12.79      0.00      0.00
   0.00000000  -0.00008696   0.00000000          0.00    -12.79      0.00
   0.00000000   0.00000000  -0.00008696          0.00      0.00    -12.79

     BFGS Geometry Optimization

     number of scf cycles    =   1
     number of bfgs steps    =   0

     enthalpy new            =    -147.4661830806 Ry

     new trust radius        =       0.0076307779 bohr
     new conv_thr            =       0.0000010000 Ry

     new unit-cell volume =    305.99826 a.u.^3 (    45.34426 Ang^3 )
     density =      3.51869 g/cm^3

CELL_PARAMETERS (alat=  6.75333318)
   0.997825990   0.000000000   0.000000000
   0.000000000   0.997825990   0.000000000
   0.000000000   0.000000000   0.997825990

ATOMIC_POSITIONS (crystal)
C        0.249997797   0.750002203   0.249997797
C        0.000000000   0.000000000   0.500000000
C        0.249997797   0.249997797   0.750002203
C        0.000000000   0.500000000   0.000000000
C        0.750002203   0.750002203   0.750002203
C        0.500000000   0.000000000   0.000000000
C        0.750002203   0.249997797   0.249997797
C        0.500000000   0.500000000   0.500000000

     Writing output data file pw.save/
     NEW-OLD atomic charge density approx. for the potential

     Check: negative core charge=   -0.000015
     extrapolated charge   31.79039, renormalised to   32.00000

[...]

     Total force =     0.000067     Total SCF correction =     0.000003

[...]

     number of scf cycles    =   2
     number of bfgs steps    =   1

     enthalpy old            =    -147.4661830806 Ry
     enthalpy new            =    -147.4661657103 Ry

     CASE: enthalpy_new > enthalpy_old

     new trust radius        =       0.0034665413 bohr
     new conv_thr            =       0.0000010000 Ry

     new unit-cell volume =    307.09005 a.u.^3 (    45.50605 Ang^3 )
     density =      3.50618 g/cm^3

[...]

ATOMIC_POSITIONS (crystal)
C        0.249998998   0.750001002   0.249998998
C        0.000000000   0.000000000   0.500000000
C        0.249998998   0.249998998   0.750001002
C        0.000000000   0.500000000   0.000000000
C        0.750001002   0.750001002   0.750001002
C        0.500000000   0.000000000   0.000000000
C        0.750001002   0.249998998   0.249998998
C        0.500000000   0.500000000   0.500000000

     Writing output data file pw.save/
     NEW-OLD atomic charge density approx. for the potential

     Check: negative core charge=   -0.000015
     extrapolated charge   32.11377, renormalised to   32.00000

[...]

     Threshold (ethr) on eigenvalues was too large:
     Diagonalizing with lowered threshold

     Davidson diagonalization with overlap
     ethr =  8.04E-08,  avg # of iterations =  1.0

[...]

     Total force =     0.000030     Total SCF correction =     0.000001

[...]

     bfgs converged in   3 scf cycles and   1 bfgs steps
     (criteria: energy <  1.0E-04 Ry, force <  1.0E-03Ry/Bohr, cell <  5.0E-01kbar)

     End of BFGS Geometry Optimization

     Final enthalpy =    -147.4662243417 Ry
Begin final coordinates
     new unit-cell volume =    307.09005 a.u.^3 (    45.50605 Ang^3 )
     density =      3.50618 g/cm^3

CELL_PARAMETERS (alat=  6.75333318)
   0.999011306   0.000000000   0.000000000
   0.000000000   0.999011306   0.000000000
   0.000000000   0.000000000   0.999011306

ATOMIC_POSITIONS (crystal)
C        0.249998998   0.750001002   0.249998998
C        0.000000000   0.000000000   0.500000000
C        0.249998998   0.249998998   0.750001002
C        0.000000000   0.500000000   0.000000000
C        0.750001002   0.750001002   0.750001002
C        0.500000000   0.000000000   0.000000000
C        0.750001002   0.249998998   0.249998998
C        0.500000000   0.500000000   0.500000000
End final coordinates

     Writing output data file pw.save/

     A final scf calculation at the relaxed structure.
     The G-vectors are recalculated for the final unit cell
     Results may differ from those at the preceding step.

     bravais-lattice index     =            0
     lattice parameter (alat)  =       6.7533  a.u.
     unit-cell volume          =     307.0900 (a.u.)^3
     number of atoms/cell      =            8
     number of atomic types    =            1
     number of electrons       =        32.00
     number of Kohn-Sham states=           20
     kinetic-energy cutoff     =      40.0000  Ry
     charge density cutoff     =     326.0000  Ry
     convergence threshold     =      1.0E-06
     mixing beta               =       0.7000
     number of iterations used =            8  plain     mixing
     Exchange-correlation      = SLA PW PBX PBC ( 1  4  3  4 0 0)

     celldm(1)=   6.753333  celldm(2)=   0.000000  celldm(3)=   0.000000
     celldm(4)=   0.000000  celldm(5)=   0.000000  celldm(6)=   0.000000

     crystal axes: (cart. coord. in units of alat)
               a(1) = (   0.999011   0.000000   0.000000 )
               a(2) = (   0.000000   0.999011   0.000000 )
               a(3) = (   0.000000   0.000000   0.999011 )

     reciprocal axes: (cart. coord. in units 2 pi/alat)
               b(1) = (  1.000990  0.000000  0.000000 )
               b(2) = (  0.000000  1.000990  0.000000 )
               b(3) = (  0.000000  0.000000  1.000990 )

     PseudoPot. # 1 for C  read from file:
     ./potentials/C.pbe-n-kjpaw_psl.1.0.0.UPF
     MD5 check sum: 5f16ad9a65e90284d1d834d4ab3b0f7d
     Pseudo is Projector augmented-wave + core cor, Zval =  4.0
     Generated using "atomic" code by A. Dal Corso v.6.3
     Shape of augmentation charge: PSQ
     Using radial grid of 1073 points,  4 beta functions with:
                l(1) =   0
                l(2) =   0
                l(3) =   1
                l(4) =   1
     Q(r) pseudized with 0 coefficients

     atomic species   valence    mass     pseudopotential
        C              4.00    12.01060     C ( 1.00)

     Starting magnetic structure
     atomic species   magnetization
        C            0.000

     24 Sym. Ops. (no inversion) found

   Cartesian axes

     site n.     atom                  positions (alat units)
         1           C   tau(   1) = (   0.2497518   0.7492595   0.2497518  )
         2           C   tau(   2) = (   0.0000000   0.0000000   0.4995057  )
         3           C   tau(   3) = (   0.2497518   0.2497518   0.7492595  )
         4           C   tau(   4) = (   0.0000000   0.4995057   0.0000000  )
         5           C   tau(   5) = (   0.7492595   0.7492595   0.7492595  )
         6           C   tau(   6) = (   0.4995057   0.0000000   0.0000000  )
         7           C   tau(   7) = (   0.7492595   0.2497518   0.2497518  )
         8           C   tau(   8) = (   0.4995057   0.4995057   0.4995057  )

     number of k points=    20  Methfessel-Paxton smearing, width (Ry)=  0.0200
                       cart. coord. in units 2pi/alat
        k(    1) = (   0.0625619   0.0625619   0.0625619), wk =   0.0156250
        k(    2) = (   0.0625619   0.0625619   0.1876856), wk =   0.0468750
        k(    3) = (   0.0625619   0.0625619   0.3128093), wk =   0.0468750
        k(    4) = (   0.0625619   0.0625619   0.4379330), wk =   0.0468750
        k(    5) = (   0.0625619   0.1876856   0.1876856), wk =   0.0468750
        k(    6) = (   0.0625619   0.1876856   0.3128093), wk =   0.0937500
        k(    7) = (   0.0625619   0.1876856   0.4379330), wk =   0.0937500
        k(    8) = (   0.0625619   0.3128093   0.3128093), wk =   0.0468750
        k(    9) = (   0.0625619   0.3128093   0.4379330), wk =   0.0937500
        k(   10) = (   0.0625619   0.4379330   0.4379330), wk =   0.0468750
        k(   11) = (   0.1876856   0.1876856   0.1876856), wk =   0.0156250
        k(   12) = (   0.1876856   0.1876856   0.3128093), wk =   0.0468750
        k(   13) = (   0.1876856   0.1876856   0.4379330), wk =   0.0468750
        k(   14) = (   0.1876856   0.3128093   0.3128093), wk =   0.0468750
        k(   15) = (   0.1876856   0.3128093   0.4379330), wk =   0.0937500
        k(   16) = (   0.1876856   0.4379330   0.4379330), wk =   0.0468750
        k(   17) = (   0.3128093   0.3128093   0.3128093), wk =   0.0156250
        k(   18) = (   0.3128093   0.3128093   0.4379330), wk =   0.0468750
        k(   19) = (   0.3128093   0.4379330   0.4379330), wk =   0.0468750
        k(   20) = (   0.4379330   0.4379330   0.4379330), wk =   0.0156250

     Check: negative core charge=   -0.000015

     Initial potential from superposition of free atoms

     starting charge   31.99967, renormalised to   32.00000
     Starting wfcs are   32 randomized atomic wfcs
     Checking if some PAW data can be deallocated...

     Self-consistent Calculation

     iteration #  1     ecut=    40.00 Ry     beta= 0.70
     Davidson diagonalization with overlap
     c_bands:  2 eigenvalues not converged
     c_bands:  1 eigenvalues not converged
     ethr =  1.00E-06,  avg # of iterations = 13.7

[...]

     total energy              =    -147.46614543 Ry
     Harris-Foulkes estimate   =    -147.46614866 Ry
     estimated scf accuracy    <       0.00000721 Ry

[...]

     iteration #  5     ecut=    40.00 Ry     beta= 0.70
     Davidson diagonalization with overlap
     ethr =  2.25E-08,  avg # of iterations =  2.8

     Magnetic moment per site:
     atom:    1    charge:    2.0204    magn:   -0.0000    constr:    0.0000
     atom:    2    charge:    2.0204    magn:    0.0000    constr:    0.0000
     atom:    3    charge:    2.0204    magn:   -0.0000    constr:    0.0000
     atom:    4    charge:    2.0204    magn:    0.0000    constr:    0.0000
     atom:    5    charge:    2.0204    magn:   -0.0000    constr:    0.0000
     atom:    6    charge:    2.0204    magn:    0.0000    constr:    0.0000
     atom:    7    charge:    2.0204    magn:   -0.0000    constr:    0.0000
     atom:    8    charge:    2.0205    magn:   -0.0000    constr:    0.0000

     End of self-consistent calculation

 ------ SPIN UP ------------

[...]

 ------ SPIN DOWN ----------

[...]

          k = 0.4379 0.4379 0.4379 (  1340 PWs)   bands (ev):

    -3.1564  -2.4120  -2.4116  -2.4116   0.1763   0.1763   0.1764   0.9060
    10.1305  10.1309  10.1309  10.3040  10.3040  10.3042  10.5741  10.5741
    21.5484  21.5487  21.5487  21.7543

     the Fermi energy is    15.1342 ev

!    total energy              =    -147.46614793 Ry
     Harris-Foulkes estimate   =    -147.46614789 Ry
     estimated scf accuracy    <       0.00000018 Ry

     total all-electron energy =      -609.578926 Ry

     The total energy is the sum of the following terms:

     one-electron contribution =      33.74803935 Ry
     hartree contribution      =       7.77186165 Ry
     xc contribution           =     -37.48415128 Ry
     ewald contribution        =    -102.20027953 Ry
     one-center paw contrib.   =     -49.30161812 Ry
     smearing contrib. (-TS)   =       0.00000000 Ry

     total magnetization       =    -0.00 Bohr mag/cell
     absolute magnetization    =     0.00 Bohr mag/cell

     convergence has been achieved in   5 iterations

     Forces acting on atoms (cartesian axes, Ry/au):

     atom    1 type  1   force =     0.00001950   -0.00001950    0.00001950
     atom    2 type  1   force =     0.00000000    0.00000000    0.00000000
     atom    3 type  1   force =     0.00001950    0.00001950   -0.00001950
     atom    4 type  1   force =     0.00000000    0.00000000    0.00000000
     atom    5 type  1   force =    -0.00001950   -0.00001950   -0.00001950
     atom    6 type  1   force =     0.00000000    0.00000000    0.00000000
     atom    7 type  1   force =    -0.00001950    0.00001950    0.00001950
     atom    8 type  1   force =     0.00000000    0.00000000    0.00000000

     Total force =     0.000068     Total SCF correction =     0.000381
     SCF correction compared to forces is large: reduce conv_thr to get better values

     Computing stress (Cartesian axis) and pressure

          total   stress  (Ry/bohr**3)                   (kbar)     P=   -0.69
  -0.00000468   0.00000000   0.00000000         -0.69      0.00      0.00
   0.00000000  -0.00000468   0.00000000          0.00     -0.69      0.00
   0.00000000   0.00000000  -0.00000468          0.00      0.00     -0.69

     Writing output data file pw.save/

     General routines

     Parallel routines

   This run was terminated on:  10:41:55   7Nov2020

   JOB DONE.