     Program PWSCF v.6.4.1 starts on  7Nov2020 at 10:46:30

     R & G space division:  proc/nbgrp/npool/nimage =       2
     Waiting for input...
     Reading input from standard input

     Current dimensions of program PWSCF are:
     Max number of different atomic species (ntypx) = 10
     Max number of k-points (npk) =  40000
     Max angular momentum in pseudopotentials (lmaxx) =  3
               file C.pbe-n-kjpaw_psl.1.0.0.UPF: wavefunction(s)  2S 2P renormalized

     Subspace diagonalization in iterative solution of the eigenvalue problem:
     a serial algorithm will be used

     Message from routine setup:
     DEPRECATED: symmetry with ibrav=0, use correct ibrav instead

     bravais-lattice index     =            0
     lattice parameter (alat)  =       4.6633  a.u.
     unit-cell volume          =     309.0936 (a.u.)^3
     number of atoms/cell      =            4
     number of atomic types    =            1
     number of electrons       =        16.00
     number of Kohn-Sham states=           12
     kinetic-energy cutoff     =      40.0000  Ry
     charge density cutoff     =     326.0000  Ry
     convergence threshold     =      1.0E-06
     mixing beta               =       0.7000
     number of iterations used =            8  plain     mixing
     Exchange-correlation      = SLA PW PBX PBC ( 1  4  3  4 0 0)
     nstep                     =           50

     celldm(1)=   4.663315  celldm(2)=   0.000000  celldm(3)=   0.000000
     celldm(4)=   0.000000  celldm(5)=   0.000000  celldm(6)=   0.000000

     crystal axes: (cart. coord. in units of alat)
               a(1) = (   1.000000   0.000000   0.000000 )
               a(2) = (  -0.500000   0.866025   0.000000 )
               a(3) = (   0.000000   0.000000   3.519453 )

     reciprocal axes: (cart. coord. in units 2 pi/alat)
               b(1) = (  1.000000  0.577350 -0.000000 )
               b(2) = (  0.000000  1.154701  0.000000 )
               b(3) = (  0.000000 -0.000000  0.284135 )

     PseudoPot. # 1 for C  read from file:
     ./potentials/C.pbe-n-kjpaw_psl.1.0.0.UPF
     MD5 check sum: 5f16ad9a65e90284d1d834d4ab3b0f7d
     Pseudo is Projector augmented-wave + core cor, Zval =  4.0
     Generated using "atomic" code by A. Dal Corso v.6.3
     Shape of augmentation charge: PSQ
     Using radial grid of 1073 points,  4 beta functions with:
                l(1) =   0
                l(2) =   0
                l(3) =   1
                l(4) =   1
     Q(r) pseudized with 0 coefficients

     atomic species   valence    mass     pseudopotential
        C              4.00    12.01060     C ( 1.00)

     Starting magnetic structure
     atomic species   magnetization
        C            1.000

     24 Sym. Ops., with inversion, found (12 have fractional translation)

   Cartesian axes

     site n.     atom                  positions (alat units)
         1           C   tau(   1) = (   0.0000000   0.0000000   0.8798631  )
         2           C   tau(   2) = (   0.0000000   0.0000000   2.6395894  )
         3           C   tau(   3) = (   0.5000000   0.2886751   0.8798631  )
         4           C   tau(   4) = (  -0.0000000   0.5773503   2.6395894  )

     number of k points=   112  Methfessel-Paxton smearing, width (Ry)=  0.0200

     Number of k-points >= 100: set verbosity='high' to print them.

     Check: negative core charge=   -0.000011

     Initial potential from superposition of free atoms

     starting charge   15.99983, renormalised to   16.00000

     negative rho (up, down):  0.000E+00 4.342E-01
     Starting wfcs are   16 randomized atomic wfcs
     Checking if some PAW data can be deallocated...

     Self-consistent Calculation

     iteration #  1     ecut=    40.00 Ry     beta= 0.70
     Davidson diagonalization with overlap
     ethr =  1.00E-02,  avg # of iterations =  3.4

     total energy              =     -73.06024705 Ry
     Harris-Foulkes estimate   =     -70.92755990 Ry
     estimated scf accuracy    <       1.04262126 Ry

     total magnetization       =     2.41 Bohr mag/cell
     absolute magnetization    =     2.46 Bohr mag/cell

[...]

     Magnetic moment per site:
     atom:    1    charge:    1.7134    magn:   -0.0000    constr:    0.0000
     atom:    2    charge:    1.7134    magn:   -0.0000    constr:    0.0000
     atom:    3    charge:    1.7135    magn:    0.0001    constr:    0.0000
     atom:    4    charge:    1.7135    magn:    0.0001    constr:    0.0000

     End of self-consistent calculation

     Number of k-points >= 100: set verbosity='high' to print the bands.

     the Fermi energy is     4.4927 ev

!    total energy              =     -73.77338558 Ry
     Harris-Foulkes estimate   =     -73.77338551 Ry
     estimated scf accuracy    <       0.00000010 Ry

     total all-electron energy =      -304.829774 Ry

     The total energy is the sum of the following terms:

     one-electron contribution =     -33.70074012 Ry
     hartree contribution      =      23.72110857 Ry
     xc contribution           =     -18.54130205 Ry
     ewald contribution        =     -20.58525868 Ry
     one-center paw contrib.   =     -24.66728394 Ry
     smearing contrib. (-TS)   =       0.00009062 Ry

[...]

     convergence has been achieved in   7 iterations

     Forces acting on atoms (cartesian axes, Ry/au):

     atom    1 type  1   force =     0.00000000    0.00000000    0.00000000
     atom    2 type  1   force =     0.00000000   -0.00000000    0.00000000
     atom    3 type  1   force =     0.00000000   -0.00000000    0.00000000
     atom    4 type  1   force =    -0.00000000    0.00000000    0.00000000

     Total force =     0.000000     Total SCF correction =     0.000000

     Computing stress (Cartesian axis) and pressure

          total   stress  (Ry/bohr**3)                   (kbar)     P=   -7.86
  -0.00005890   0.00000000   0.00000000         -8.66      0.00      0.00
   0.00000000  -0.00005890   0.00000000          0.00     -8.66      0.00
  -0.00000000  -0.00000000  -0.00004254         -0.00     -0.00     -6.26

     BFGS Geometry Optimization

     number of scf cycles    =   1
     number of bfgs steps    =   0

     enthalpy new            =     -73.7733855820 Ry

     new trust radius        =       0.0051776332 bohr
     new conv_thr            =       0.0000010000 Ry

     new unit-cell volume =    307.85620 a.u.^3 (    45.61958 Ang^3 )
     density =      1.74873 g/cm^3

CELL_PARAMETERS (alat=  4.66331497)
   0.998527497   0.000000000  -0.000000000
  -0.499263748   0.864750178  -0.000000000
   0.000000000   0.000000000   3.515709389

ATOMIC_POSITIONS (crystal)
C        0.000000000   0.000000000   0.250000000
C       -0.000000000  -0.000000000   0.750000000
C        0.666666667   0.333333333   0.250000000
C        0.333333333   0.666666667   0.750000000

     Writing output data file pw.save/
     NEW-OLD atomic charge density approx. for the potential

     Check: negative core charge=   -0.000011
     extrapolated charge   15.93569, renormalised to   16.00000

[...]

     enthalpy old            =     -73.7733855820 Ry
     enthalpy new            =     -73.7734075665 Ry

     CASE: enthalpy_new < enthalpy_old

[...]

     Threshold (ethr) on eigenvalues was too large:
     Diagonalizing with lowered threshold

     Davidson diagonalization with overlap
     ethr =  1.27E-08,  avg # of iterations =  1.1

[...]

     WARNING: bfgs curvature condition failed, Theta= 0.961
     new trust radius        =       0.0069664279 bohr
     new conv_thr            =       0.0000000100 Ry

[...]

     WARNING: bfgs curvature condition failed, Theta= 0.606
     uphill step: resetting bfgs history

[...]

     Threshold (ethr) on eigenvalues was too large:
     Diagonalizing with lowered threshold

     Davidson diagonalization with overlap
     ethr =  5.15E-08,  avg # of iterations =  1.0

[...]

     WARNING: bfgs curvature condition failed, Theta= 0.881
     new trust radius        =       0.0055615384 bohr
     new conv_thr            =       0.0000000100 Ry

[...]

     number of scf cycles    =  14
     number of bfgs steps    =  13

     enthalpy old            =     -73.7737387177 Ry
     enthalpy new            =     -73.7737898924 Ry

     CASE: enthalpy_new < enthalpy_old

     new trust radius        =       0.0331416904 bohr
     new conv_thr            =       0.0000000100 Ry

     new unit-cell volume =    287.80104 a.u.^3 (    42.64771 Ang^3 )
     density =      1.87059 g/cm^3

[...]

ATOMIC_POSITIONS (crystal)
C        0.000000000   0.000000000   0.250000000
C       -0.000000000  -0.000000000   0.750000000
C        0.666666667   0.333333333   0.250000000
C        0.333333333   0.666666667   0.750000000

     Writing output data file pw.save/
     NEW-OLD atomic charge density approx. for the potential

     Check: negative core charge=   -0.000011
     extrapolated charge   15.84280, renormalised to   16.00000

[...]

Begin final coordinates
     new unit-cell volume =    287.80104 a.u.^3 (    42.64771 Ang^3 )
     density =      1.87059 g/cm^3

[...]

ATOMIC_POSITIONS (crystal)
C        0.000000000   0.000000000   0.250000000
C       -0.000000000  -0.000000000   0.750000000
C        0.666666667   0.333333333   0.250000000
C        0.333333333   0.666666667   0.750000000
End final coordinates

     Writing output data file pw.save/

     lsda relaxation :  a final configuration with zero
                        absolute magnetization has been found

     the program is checking if it is really the minimum energy structure
     by performing a new scf iteration without any "electronic" history

[...]

     starting charge   15.99983, renormalised to   16.00000

     negative rho (up, down):  0.000E+00 4.232E-01

[...]

     bfgs converged in  15 scf cycles and  14 bfgs steps
     (criteria: energy <  1.0E-04 Ry, force <  1.0E-03Ry/Bohr, cell <  5.0E-01kbar)

     End of BFGS Geometry Optimization

     Final enthalpy =     -73.7737949942 Ry
Begin final coordinates
     new unit-cell volume =    287.80104 a.u.^3 (    42.64771 Ang^3 )
     density =      1.87059 g/cm^3

CELL_PARAMETERS (alat=  4.66331497)
   0.999232328   0.000000000  -0.000000000
  -0.499616164   0.865360580  -0.000000000
  -0.000000000  -0.000000000   3.282044903

ATOMIC_POSITIONS (crystal)
C        0.000000000   0.000000000   0.250000000
C       -0.000000000  -0.000000000   0.750000000
C        0.666666667   0.333333333   0.250000000
C        0.333333333   0.666666667   0.750000000
End final coordinates

[...]

     A final scf calculation at the relaxed structure.
     The G-vectors are recalculated for the final unit cell
     Results may differ from those at the preceding step.

     bravais-lattice index     =            0
     lattice parameter (alat)  =       4.6633  a.u.
     unit-cell volume          =     287.8010 (a.u.)^3
     number of atoms/cell      =            4
     number of atomic types    =            1
     number of electrons       =        16.00
     number of Kohn-Sham states=           12
     kinetic-energy cutoff     =      40.0000  Ry
     charge density cutoff     =     326.0000  Ry
     convergence threshold     =      1.0E-08
     mixing beta               =       0.7000
     number of iterations used =            8  plain     mixing
     Exchange-correlation      = SLA PW PBX PBC ( 1  4  3  4 0 0)

     celldm(1)=   4.663315  celldm(2)=   0.000000  celldm(3)=   0.000000
     celldm(4)=   0.000000  celldm(5)=   0.000000  celldm(6)=   0.000000

     crystal axes: (cart. coord. in units of alat)
               a(1) = (   0.999232   0.000000  -0.000000 )
               a(2) = (  -0.499616   0.865361  -0.000000 )
               a(3) = (  -0.000000  -0.000000   3.282045 )

     reciprocal axes: (cart. coord. in units 2 pi/alat)
               b(1) = (  1.000768  0.577794  0.000000 )
               b(2) = ( -0.000000  1.155588  0.000000 )
               b(3) = (  0.000000  0.000000  0.304688 )

     PseudoPot. # 1 for C  read from file:
     ./potentials/C.pbe-n-kjpaw_psl.1.0.0.UPF
     MD5 check sum: 5f16ad9a65e90284d1d834d4ab3b0f7d
     Pseudo is Projector augmented-wave + core cor, Zval =  4.0
     Generated using "atomic" code by A. Dal Corso v.6.3
     Shape of augmentation charge: PSQ
     Using radial grid of 1073 points,  4 beta functions with:
                l(1) =   0
                l(2) =   0
                l(3) =   1
                l(4) =   1
     Q(r) pseudized with 0 coefficients

     atomic species   valence    mass     pseudopotential
        C              4.00    12.01060     C ( 1.00)

     Starting magnetic structure
     atomic species   magnetization
        C            0.000

     24 Sym. Ops., with inversion, found (12 have fractional translation)

   Cartesian axes

     site n.     atom                  positions (alat units)
         1           C   tau(   1) = (   0.0000000   0.0000000   0.8205112  )
         2           C   tau(   2) = (  -0.0000000  -0.0000000   2.4615337  )
         3           C   tau(   3) = (   0.4996162   0.2884535   0.8205112  )
         4           C   tau(   4) = (  -0.0000000   0.5769071   2.4615337  )

     number of k points=   112  Methfessel-Paxton smearing, width (Ry)=  0.0200

     Number of k-points >= 100: set verbosity='high' to print them.

     Check: negative core charge=   -0.000011

     Initial potential from superposition of free atoms

     starting charge   15.99983, renormalised to   16.00000
     Starting wfcs are   16 randomized atomic wfcs
     Checking if some PAW data can be deallocated...

     Self-consistent Calculation

     iteration #  1     ecut=    40.00 Ry     beta= 0.70
     Davidson diagonalization with overlap
     c_bands:  1 eigenvalues not converged
     c_bands:  1 eigenvalues not converged
     c_bands:  1 eigenvalues not converged
     c_bands:  1 eigenvalues not converged
     c_bands:  1 eigenvalues not converged
     c_bands:  1 eigenvalues not converged
     c_bands:  2 eigenvalues not converged
     c_bands:  1 eigenvalues not converged
     c_bands:  2 eigenvalues not converged
     c_bands:  1 eigenvalues not converged
     c_bands:  1 eigenvalues not converged
     c_bands:  1 eigenvalues not converged
     c_bands:  2 eigenvalues not converged
     c_bands:  1 eigenvalues not converged
     c_bands:  1 eigenvalues not converged
     c_bands:  2 eigenvalues not converged
     c_bands:  2 eigenvalues not converged
     c_bands:  1 eigenvalues not converged
     c_bands:  2 eigenvalues not converged
     c_bands:  1 eigenvalues not converged
     c_bands:  2 eigenvalues not converged
     ethr =  1.00E-06,  avg # of iterations = 11.8

[...]

     total energy              =     -73.77320158 Ry
     Harris-Foulkes estimate   =     -73.77320160 Ry
     estimated scf accuracy    <       0.00000005 Ry

[...]

     iteration #  7     ecut=    40.00 Ry     beta= 0.70
     Davidson diagonalization with overlap
     ethr =  3.42E-10,  avg # of iterations =  1.7

     Magnetic moment per site:
     atom:    1    charge:    1.7145    magn:    0.0000    constr:    0.0000
     atom:    2    charge:    1.7145    magn:    0.0000    constr:    0.0000
     atom:    3    charge:    1.7147    magn:   -0.0000    constr:    0.0000
     atom:    4    charge:    1.7147    magn:   -0.0000    constr:    0.0000

     End of self-consistent calculation

     Number of k-points >= 100: set verbosity='high' to print the bands.

     the Fermi energy is     5.1219 ev

!    total energy              =     -73.77320159 Ry
     Harris-Foulkes estimate   =     -73.77320159 Ry
     estimated scf accuracy    <          1.8E-09 Ry

     total all-electron energy =      -304.829590 Ry

     The total energy is the sum of the following terms:

     one-electron contribution =     -26.60859296 Ry
     hartree contribution      =      20.55455905 Ry
     xc contribution           =     -18.54943097 Ry
     ewald contribution        =     -24.50221554 Ry
     one-center paw contrib.   =     -24.66760207 Ry
     smearing contrib. (-TS)   =       0.00008089 Ry

     total magnetization       =    -0.00 Bohr mag/cell
     absolute magnetization    =     0.00 Bohr mag/cell

     convergence has been achieved in   7 iterations

     Forces acting on atoms (cartesian axes, Ry/au):

     atom    1 type  1   force =     0.00000000    0.00000000    0.00000000
     atom    2 type  1   force =    -0.00000000    0.00000000   -0.00000000
     atom    3 type  1   force =     0.00000000    0.00000000    0.00000000
     atom    4 type  1   force =     0.00000000   -0.00000000   -0.00000000

     Total force =     0.000000     Total SCF correction =     0.000000

     Computing stress (Cartesian axis) and pressure

          total   stress  (Ry/bohr**3)                   (kbar)     P=   -2.79
  -0.00001070  -0.00000000  -0.00000000         -1.57     -0.00     -0.00
  -0.00000000  -0.00001070  -0.00000000         -0.00     -1.57     -0.00
  -0.00000000   0.00000000  -0.00003545         -0.00      0.00     -5.21

     Writing output data file pw.save/

     General routines

     Parallel routines

   This run was terminated on:  11: 3:47   7Nov2020

   JOB DONE.