     Program PWSCF v.6.4.1 starts on  7Nov2020 at 11:12:37

     R & G space division:  proc/nbgrp/npool/nimage =       2
     Waiting for input...
     Reading input from standard input

     Current dimensions of program PWSCF are:
     Max number of different atomic species (ntypx) = 10
     Max number of k-points (npk) =  40000
     Max angular momentum in pseudopotentials (lmaxx) =  3
               file Ge.pbe-dn-kjpaw_psl.1.0.0.UPF: wavefunction(s)  4S 4P 3D renormalized

     Subspace diagonalization in iterative solution of the eigenvalue problem:
     a serial algorithm will be used

     Found symmetry operation: I + (  0.0000 -0.5000  0.5000)
     This is a supercell, fractional translations are disabled
     Message from routine setup:
     DEPRECATED: symmetry with ibrav=0, use correct ibrav instead

     bravais-lattice index     =            0
     lattice parameter (alat)  =      10.8902  a.u.
     unit-cell volume          =    1291.5488 (a.u.)^3
     number of atoms/cell      =            8
     number of atomic types    =            1
     number of electrons       =       112.00
     number of Kohn-Sham states=           67
     kinetic-energy cutoff     =      42.0000  Ry
     charge density cutoff     =     239.0000  Ry
     convergence threshold     =      1.0E-06
     mixing beta               =       0.7000
     number of iterations used =            8  plain     mixing
     Exchange-correlation      = SLA PW PBX PBC ( 1  4  3  4 0 0)
     nstep                     =           50

     celldm(1)=  10.890227  celldm(2)=   0.000000  celldm(3)=   0.000000
     celldm(4)=   0.000000  celldm(5)=   0.000000  celldm(6)=   0.000000

     crystal axes: (cart. coord. in units of alat)
               a(1) = (   1.000000   0.000000   0.000000 )
               a(2) = (   0.000000   1.000000   0.000000 )
               a(3) = (   0.000000   0.000000   1.000000 )

     reciprocal axes: (cart. coord. in units 2 pi/alat)
               b(1) = (  1.000000  0.000000  0.000000 )
               b(2) = (  0.000000  1.000000  0.000000 )
               b(3) = (  0.000000  0.000000  1.000000 )

     PseudoPot. # 1 for Ge read from file:
     ./potentials/Ge.pbe-dn-kjpaw_psl.1.0.0.UPF
     MD5 check sum: eb80e2af1dd627c8a8d5a19b68035a9b
     Pseudo is Projector augmented-wave + core cor, Zval = 14.0
     Generated using "atomic" code by A. Dal Corso v.6.3
     Shape of augmentation charge: PSQ
     Using radial grid of 1207 points,  6 beta functions with:
                l(1) =   0
                l(2) =   0
                l(3) =   1
                l(4) =   1
                l(5) =   2
                l(6) =   2
     Q(r) pseudized with 0 coefficients

     atomic species   valence    mass     pseudopotential
        Ge            14.00    72.63000     Ge( 1.00)

     Starting magnetic structure
     atomic species   magnetization
        Ge           1.000

     24 Sym. Ops. (no inversion) found

   Cartesian axes

     site n.     atom                  positions (alat units)
         1           Ge  tau(   1) = (   0.5000000   0.0000000   0.5000000  )
         2           Ge  tau(   2) = (   0.2500000   0.2500000   0.2500000  )
         3           Ge  tau(   3) = (   0.5000000   0.5000000   0.0000000  )
         4           Ge  tau(   4) = (   0.2500000   0.7500000   0.7500000  )
         5           Ge  tau(   5) = (   0.0000000   0.0000000   0.0000000  )
         6           Ge  tau(   6) = (   0.7500000   0.2500000   0.7500000  )
         7           Ge  tau(   7) = (   0.0000000   0.5000000   0.5000000  )
         8           Ge  tau(   8) = (   0.7500000   0.7500000   0.2500000  )

     number of k points=     4  Methfessel-Paxton smearing, width (Ry)=  0.0200
                       cart. coord. in units 2pi/alat
        k(    1) = (   0.1250000   0.1250000   0.1250000), wk =   0.1250000
        k(    2) = (   0.1250000   0.1250000   0.3750000), wk =   0.3750000
        k(    3) = (   0.1250000   0.3750000   0.3750000), wk =   0.3750000
        k(    4) = (   0.3750000   0.3750000   0.3750000), wk =   0.1250000

     Check: negative core charge=   -0.000002

     Initial potential from superposition of free atoms

     starting charge  111.99387, renormalised to  112.00000

     negative rho (up, down):  0.000E+00 2.803E-01
     Starting wfcs are   72 randomized atomic wfcs
     Checking if some PAW data can be deallocated...

     Self-consistent Calculation

     iteration #  1     ecut=    42.00 Ry     beta= 0.70
     Davidson diagonalization with overlap
     ethr =  1.00E-02,  avg # of iterations =  3.8

     total energy              =   -2520.72804466 Ry
     Harris-Foulkes estimate   =   -2500.77793286 Ry
     estimated scf accuracy    <      62.95680769 Ry

     total magnetization       =    11.66 Bohr mag/cell
     absolute magnetization    =    11.66 Bohr mag/cell

[...]

     Magnetic moment per site:
     atom:    1    charge:   11.8970    magn:    0.0001    constr:    0.0000
     atom:    2    charge:   11.8985    magn:    0.0001    constr:    0.0000
     atom:    3    charge:   11.8970    magn:    0.0001    constr:    0.0000
     atom:    4    charge:   11.8985    magn:    0.0001    constr:    0.0000
     atom:    5    charge:   11.8972    magn:    0.0002    constr:    0.0000
     atom:    6    charge:   11.8985    magn:    0.0001    constr:    0.0000
     atom:    7    charge:   11.8970    magn:    0.0001    constr:    0.0000
     atom:    8    charge:   11.8985    magn:    0.0001    constr:    0.0000

     End of self-consistent calculation

 ------ SPIN UP ------------

          k = 0.1250 0.1250 0.1250 (  5923 PWs)   bands (ev):

   -17.0033 -17.0030 -17.0030 -16.9968 -16.9968 -16.9964 -16.9746 -16.9746
   -16.9654 -16.9326 -16.9326 -16.9324 -16.9271 -16.9271 -16.8915 -16.8915
   -16.8915 -16.8582 -16.8582 -16.8579 -16.8207 -16.8207 -16.8204 -16.8177
   -16.8177 -16.8176 -16.7771 -16.7771 -16.7768 -16.7650 -16.7650 -16.7557
   -16.7349 -16.7349 -16.7085 -16.7085 -16.7081 -16.7028 -16.7025 -16.7025
    -4.4086  -1.6870  -1.6866  -1.6866  -0.0346  -0.0343  -0.0343   4.4411
     4.4413   4.4413   5.0578   5.0578   5.0579   5.3282   7.4642   7.4642
     8.5772   8.7307   8.7307   8.7307   9.7228   9.7228   9.7229  10.7237
    10.7237  11.1044  14.9731

[...]

 ------ SPIN DOWN ----------

[...]

     the Fermi energy is     7.6936 ev

!    total energy              =   -2524.30530079 Ry
     Harris-Foulkes estimate   =   -2524.30530020 Ry
     estimated scf accuracy    <       0.00000029 Ry

     total all-electron energy =    -33583.958310 Ry

     The total energy is the sum of the following terms:

     one-electron contribution =   -1163.96683449 Ry
     hartree contribution      =     662.86329533 Ry
     xc contribution           =    -313.45285816 Ry
     ewald contribution        =    -775.60359605 Ry
     one-center paw contrib.   =    -934.14574642 Ry
     smearing contrib. (-TS)   =       0.00043899 Ry

[...]

     convergence has been achieved in   7 iterations

     Forces acting on atoms (cartesian axes, Ry/au):

     atom    1 type  1   force =     0.00000000    0.00000000    0.00000000
     atom    2 type  1   force =     0.00024070    0.00024070    0.00024070
     atom    3 type  1   force =     0.00000000    0.00000000    0.00000000
     atom    4 type  1   force =     0.00024070   -0.00024070   -0.00024070
     atom    5 type  1   force =     0.00000000    0.00000000    0.00000000
     atom    6 type  1   force =    -0.00024070    0.00024070   -0.00024070
     atom    7 type  1   force =     0.00000000    0.00000000    0.00000000
     atom    8 type  1   force =    -0.00024070   -0.00024070    0.00024070

     Total force =     0.000834     Total SCF correction =     0.001385
     SCF correction compared to forces is large: reduce conv_thr to get better values

     Computing stress (Cartesian axis) and pressure

          total   stress  (Ry/bohr**3)                   (kbar)     P=    2.26
   0.00001539   0.00000000   0.00000000          2.26      0.00      0.00
   0.00000000   0.00001539   0.00000000          0.00      2.26      0.00
   0.00000000   0.00000000   0.00001539          0.00      0.00      2.26

     BFGS Geometry Optimization

     number of scf cycles    =   1
     number of bfgs steps    =   0

     enthalpy new            =   -2524.3053007943 Ry

     new trust radius        =       0.0027649613 bohr
     new conv_thr            =       0.0000010000 Ry

     new unit-cell volume =   1293.03987 a.u.^3 (   191.60874 Ang^3 )
     density =      5.03547 g/cm^3

CELL_PARAMETERS (alat= 10.89022714)
   1.000384684   0.000000000   0.000000000
   0.000000000   1.000384684   0.000000000
   0.000000000   0.000000000   1.000384684

ATOMIC_POSITIONS (crystal)
Ge       0.500000000   0.000000000   0.500000000
Ge       0.250022102   0.250022102   0.250022102
Ge       0.500000000   0.500000000   0.000000000
Ge       0.250022102   0.749977898   0.749977898
Ge       0.000000000   0.000000000   0.000000000
Ge       0.749977898   0.250022102   0.749977898
Ge       0.000000000   0.500000000   0.500000000
Ge       0.749977898   0.749977898   0.250022102

     Writing output data file pw.save/
     NEW-OLD atomic charge density approx. for the potential

     Check: negative core charge=   -0.000002
     extrapolated charge  112.12915, renormalised to  112.00000

[...]

     Total force =     0.000240     Total SCF correction =     0.000022

[...]

     enthalpy old            =   -2524.3053007943 Ry
     enthalpy new            =   -2524.3052817099 Ry

     CASE: enthalpy_new > enthalpy_old

[...]

     Threshold (ethr) on eigenvalues was too large:
     Diagonalizing with lowered threshold

     Davidson diagonalization with overlap
     ethr =  3.23E-08,  avg # of iterations =  1.0

[...]

     new trust radius        =       0.0000640570 bohr

     trust_radius < trust_radius_min

     resetting bfgs history

     new conv_thr            =       0.0000010000 Ry

[...]

     Threshold (ethr) on eigenvalues was too large:
     Diagonalizing with lowered threshold

     Davidson diagonalization with overlap
     ethr =  2.35E-08,  avg # of iterations =  1.0

[...]

     new trust radius        =       0.0000665044 bohr

     trust_radius < trust_radius_min

     resetting bfgs history

     new conv_thr            =       0.0000010000 Ry

[...]

     Self-consistent Calculation

[...]

     total energy              =   -2524.30528113 Ry
     Harris-Foulkes estimate   =   -2524.30528485 Ry
     estimated scf accuracy    <       0.00000671 Ry

[...]

     iteration #  9     ecut=    42.00 Ry     beta= 0.70
     Davidson diagonalization with overlap
     ethr =  5.57E-09,  avg # of iterations =  2.0

     Magnetic moment per site:
     atom:    1    charge:   11.8985    magn:    0.0000    constr:    0.0000
     atom:    2    charge:   11.8999    magn:   -0.0000    constr:    0.0000
     atom:    3    charge:   11.8985    magn:    0.0000    constr:    0.0000
     atom:    4    charge:   11.8999    magn:   -0.0000    constr:    0.0000
     atom:    5    charge:   11.8983    magn:   -0.0000    constr:    0.0000
     atom:    6    charge:   11.8999    magn:   -0.0000    constr:    0.0000
     atom:    7    charge:   11.8985    magn:    0.0000    constr:    0.0000
     atom:    8    charge:   11.8999    magn:   -0.0000    constr:    0.0000

     End of self-consistent calculation

 ------ SPIN UP ------------

[...]

 ------ SPIN DOWN ----------

[...]

          k = 0.3749 0.3749 0.3749 (  5926 PWs)   bands (ev):

   -17.0138 -17.0138 -17.0136 -17.0054 -17.0053 -17.0053 -17.0023 -17.0023
   -16.9689 -16.9556 -16.9555 -16.9555 -16.9178 -16.9178 -16.9087 -16.9086
   -16.9086 -16.9052 -16.9051 -16.9051 -16.8179 -16.8179 -16.8179 -16.8063
   -16.8062 -16.8062 -16.7994 -16.7994 -16.7917 -16.7916 -16.7916 -16.7835
   -16.7358 -16.7358 -16.7321 -16.7321 -16.7321 -16.7239 -16.7239 -16.7238
    -3.1363  -2.5462  -2.5462  -2.5452   0.5084   0.5089   0.5089   1.2707
     5.2347   5.2347   5.2354   6.1156   6.1159   6.1159   6.5694   6.5694
     7.9046   9.0096   9.0099   9.0099  11.2669  11.2671  11.2671  11.4911
    11.4911  12.1544  12.1545

     the Fermi energy is     7.6781 ev

!    total energy              =   -2524.30528163 Ry
     Harris-Foulkes estimate   =   -2524.30528213 Ry
     estimated scf accuracy    <       0.00000057 Ry

     total all-electron energy =    -33583.958291 Ry

     The total energy is the sum of the following terms:

     one-electron contribution =   -1164.47201698 Ry
     hartree contribution      =     663.06584592 Ry
     xc contribution           =    -313.44947377 Ry
     ewald contribution        =    -775.30535296 Ry
     one-center paw contrib.   =    -934.14470663 Ry
     smearing contrib. (-TS)   =       0.00042279 Ry

     total magnetization       =    -0.00 Bohr mag/cell
     absolute magnetization    =     0.00 Bohr mag/cell

     convergence has been achieved in   9 iterations

     Forces acting on atoms (cartesian axes, Ry/au):

     atom    1 type  1   force =     0.00000000    0.00000000    0.00000000
     atom    2 type  1   force =    -0.00007810   -0.00007810   -0.00007810
     atom    3 type  1   force =     0.00000000    0.00000000    0.00000000
     atom    4 type  1   force =    -0.00007810    0.00007810    0.00007810
     atom    5 type  1   force =     0.00000000    0.00000000    0.00000000
     atom    6 type  1   force =     0.00007810   -0.00007810    0.00007810
     atom    7 type  1   force =     0.00000000    0.00000000    0.00000000
     atom    8 type  1   force =     0.00007810    0.00007810   -0.00007810

     Total force =     0.000271     Total SCF correction =     0.000076
     SCF correction compared to forces is large: reduce conv_thr to get better values

     Computing stress (Cartesian axis) and pressure

          total   stress  (Ry/bohr**3)                   (kbar)     P=    5.98
   0.00004068   0.00000000   0.00000000          5.98      0.00      0.00
   0.00000000   0.00004068   0.00000000          0.00      5.98      0.00
   0.00000000   0.00000000   0.00004068          0.00      0.00      5.98

     number of scf cycles    =  50
     number of bfgs steps    =   1

     enthalpy old            =   -2524.3053007943 Ry
     enthalpy new            =   -2524.3052816278 Ry

     CASE: enthalpy_new > enthalpy_old

     new trust radius        =       0.0007634491 bohr
     new conv_thr            =       0.0000010000 Ry

     new unit-cell volume =   1291.96030 a.u.^3 (   191.44876 Ang^3 )
     density =      5.03967 g/cm^3

CELL_PARAMETERS (alat= 10.89022714)
   1.000106197   0.000000000   0.000000000
   0.000000000   1.000106197   0.000000000
   0.000000000   0.000000000   1.000106197

ATOMIC_POSITIONS (crystal)
Ge       0.500000000   0.000000000   0.500000000
Ge       0.250006101   0.250006101   0.250006101
Ge       0.500000000   0.500000000   0.000000000
Ge       0.250006101   0.749993899   0.749993899
Ge       0.000000000   0.000000000   0.000000000
Ge       0.749993899   0.250006101   0.749993899
Ge       0.000000000   0.500000000   0.500000000
Ge       0.749993899   0.749993899   0.250006101

     Writing output data file pw.save/
     NEW-OLD atomic charge density approx. for the potential

     Check: negative core charge=   -0.000002
     extrapolated charge  111.90642, renormalised to  112.00000

     Writing output data file pw.save/

     General routines

     Parallel routines

   This run was terminated on:  12:50:23   7Nov2020

   JOB DONE.
Primary job  terminated normally, but 1 process returned
a non-zero exit code.. Per user-direction, the job has been aborted.
mpirun detected that one or more processes exited with non-zero status, thus causing
the job to be terminated. The first process to do so was:

  Process name: [[16294,1],0]
  Exit code:    3