     Program PWSCF v.6.4.1 starts on  7Nov2020 at 11: 7:16

     R & G space division:  proc/nbgrp/npool/nimage =       2
     Waiting for input...
     Reading input from standard input

     Current dimensions of program PWSCF are:
     Max number of different atomic species (ntypx) = 10
     Max number of k-points (npk) =  40000
     Max angular momentum in pseudopotentials (lmaxx) =  3
               file Si.pbe-n-kjpaw_psl.1.0.0.UPF: wavefunction(s)  3S 3P renormalized

     Subspace diagonalization in iterative solution of the eigenvalue problem:
     a serial algorithm will be used

     Found symmetry operation: I + (  0.0000  0.5000 -0.5000)
     This is a supercell, fractional translations are disabled
     Message from routine setup:
     DEPRECATED: symmetry with ibrav=0, use correct ibrav instead

     bravais-lattice index     =            0
     lattice parameter (alat)  =      10.3344  a.u.
     unit-cell volume          =    1103.7127 (a.u.)^3
     number of atoms/cell      =            8
     number of atomic types    =            1
     number of electrons       =        32.00
     number of Kohn-Sham states=           20
     kinetic-energy cutoff     =      44.0000  Ry
     charge density cutoff     =     175.0000  Ry
     convergence threshold     =      1.0E-06
     mixing beta               =       0.7000
     number of iterations used =            8  plain     mixing
     Exchange-correlation      = SLA PW PBX PBC ( 1  4  3  4 0 0)
     nstep                     =           50

     celldm(1)=  10.334402  celldm(2)=   0.000000  celldm(3)=   0.000000
     celldm(4)=   0.000000  celldm(5)=   0.000000  celldm(6)=   0.000000

     crystal axes: (cart. coord. in units of alat)
               a(1) = (   1.000000   0.000000   0.000000 )
               a(2) = (   0.000000   1.000000   0.000000 )
               a(3) = (   0.000000   0.000000   1.000000 )

     reciprocal axes: (cart. coord. in units 2 pi/alat)
               b(1) = (  1.000000  0.000000  0.000000 )
               b(2) = (  0.000000  1.000000  0.000000 )
               b(3) = (  0.000000  0.000000  1.000000 )

     PseudoPot. # 1 for Si read from file:
     ./potentials/Si.pbe-n-kjpaw_psl.1.0.0.UPF
     MD5 check sum: c39c59da582df4a0d9f10159256ea34e
     Pseudo is Projector augmented-wave + core cor, Zval =  4.0
     Generated using "atomic" code by A. Dal Corso v.6.3
     Shape of augmentation charge: PSQ
     Using radial grid of 1141 points,  6 beta functions with:
                l(1) =   0
                l(2) =   0
                l(3) =   1
                l(4) =   1
                l(5) =   2
                l(6) =   2
     Q(r) pseudized with 0 coefficients

     atomic species   valence    mass     pseudopotential
        Si             4.00    28.08500     Si( 1.00)

     Starting magnetic structure
     atomic species   magnetization
        Si           1.000

     24 Sym. Ops. (no inversion) found

   Cartesian axes

     site n.     atom                  positions (alat units)
         1           Si  tau(   1) = (   0.2500000   0.7500000   0.2500000  )
         2           Si  tau(   2) = (   0.0000000   0.0000000   0.5000000  )
         3           Si  tau(   3) = (   0.2500000   0.2500000   0.7500000  )
         4           Si  tau(   4) = (   0.0000000   0.5000000   0.0000000  )
         5           Si  tau(   5) = (   0.7500000   0.7500000   0.7500000  )
         6           Si  tau(   6) = (   0.5000000   0.0000000   0.0000000  )
         7           Si  tau(   7) = (   0.7500000   0.2500000   0.2500000  )
         8           Si  tau(   8) = (   0.5000000   0.5000000   0.5000000  )

     number of k points=    10  Methfessel-Paxton smearing, width (Ry)=  0.0200
                       cart. coord. in units 2pi/alat
        k(    1) = (   0.0833333   0.0833333   0.0833333), wk =   0.0370370
        k(    2) = (   0.0833333   0.0833333   0.2500000), wk =   0.1111111
        k(    3) = (   0.0833333   0.0833333   0.4166667), wk =   0.1111111
        k(    4) = (   0.0833333   0.2500000   0.2500000), wk =   0.1111111
        k(    5) = (   0.0833333   0.2500000   0.4166667), wk =   0.2222222
        k(    6) = (   0.0833333   0.4166667   0.4166667), wk =   0.1111111
        k(    7) = (   0.2500000   0.2500000   0.2500000), wk =   0.0370370
        k(    8) = (   0.2500000   0.2500000   0.4166667), wk =   0.1111111
        k(    9) = (   0.2500000   0.4166667   0.4166667), wk =   0.1111111
        k(   10) = (   0.4166667   0.4166667   0.4166667), wk =   0.0370370

     Check: negative core charge=   -0.000001

     Initial potential from superposition of free atoms

     starting charge   31.99553, renormalised to   32.00000

     negative rho (up, down):  0.000E+00 2.298E-01
     Starting wfcs are   32 randomized atomic wfcs
     Checking if some PAW data can be deallocated...

     Self-consistent Calculation

     iteration #  1     ecut=    44.00 Ry     beta= 0.70
     Davidson diagonalization with overlap
     ethr =  1.00E-02,  avg # of iterations =  3.0

     total energy              =    -372.82937383 Ry
     Harris-Foulkes estimate   =    -370.90675109 Ry
     estimated scf accuracy    <       0.42861379 Ry

     total magnetization       =     6.42 Bohr mag/cell
     absolute magnetization    =     6.42 Bohr mag/cell

[...]

     Magnetic moment per site:
     atom:    1    charge:    1.8425    magn:   -0.0001    constr:    0.0000
     atom:    2    charge:    1.8425    magn:   -0.0002    constr:    0.0000
     atom:    3    charge:    1.8425    magn:   -0.0001    constr:    0.0000
     atom:    4    charge:    1.8425    magn:   -0.0002    constr:    0.0000
     atom:    5    charge:    1.8425    magn:   -0.0001    constr:    0.0000
     atom:    6    charge:    1.8425    magn:   -0.0002    constr:    0.0000
     atom:    7    charge:    1.8425    magn:   -0.0001    constr:    0.0000
     atom:    8    charge:    1.8426    magn:   -0.0000    constr:    0.0000

     End of self-consistent calculation

 ------ SPIN UP ------------

          k = 0.0833 0.0833 0.0833 (  5443 PWs)   bands (ev):

    -5.7461  -2.3547  -2.3540  -2.3540  -1.1142  -1.1135  -1.1135   2.8756
     2.8760   2.8760   3.2613   3.2613   3.2617   5.1251   5.8442   5.8442
     6.7966   6.7966   6.7968   7.3569

[...]

 ------ SPIN DOWN ----------

[...]

     the Fermi energy is     6.6047 ev

!    total energy              =    -373.81408646 Ry
     Harris-Foulkes estimate   =    -373.81408666 Ry
     estimated scf accuracy    <       0.00000058 Ry

     total all-electron energy =     -4640.581006 Ry

     The total energy is the sum of the following terms:

     one-electron contribution =      22.29596614 Ry
     hartree contribution      =       4.47589233 Ry
     xc contribution           =     -49.13284434 Ry
     ewald contribution        =     -66.71988859 Ry
     one-center paw contrib.   =    -284.73353928 Ry
     smearing contrib. (-TS)   =       0.00032728 Ry

[...]

     convergence has been achieved in   7 iterations

     Forces acting on atoms (cartesian axes, Ry/au):

     atom    1 type  1   force =     0.00010641   -0.00010641    0.00010641
     atom    2 type  1   force =     0.00000000    0.00000000    0.00000000
     atom    3 type  1   force =     0.00010641    0.00010641   -0.00010641
     atom    4 type  1   force =     0.00000000    0.00000000    0.00000000
     atom    5 type  1   force =    -0.00010641   -0.00010641   -0.00010641
     atom    6 type  1   force =     0.00000000    0.00000000    0.00000000
     atom    7 type  1   force =    -0.00010641    0.00010641    0.00010641
     atom    8 type  1   force =     0.00000000    0.00000000    0.00000000

     Total force =     0.000369     Total SCF correction =     0.000688
     SCF correction compared to forces is large: reduce conv_thr to get better values

     Computing stress (Cartesian axis) and pressure

          total   stress  (Ry/bohr**3)                   (kbar)     P=    0.24
   0.00000163   0.00000000   0.00000000          0.24      0.00      0.00
   0.00000000   0.00000163   0.00000000          0.00      0.24      0.00
   0.00000000   0.00000000   0.00000163          0.00      0.00      0.24

     BFGS Geometry Optimization

     bfgs converged in   1 scf cycles and   0 bfgs steps
     (criteria: energy <  1.0E-04 Ry, force <  1.0E-03Ry/Bohr, cell <  5.0E-01kbar)

     End of BFGS Geometry Optimization

     Final enthalpy =    -373.8140864608 Ry
Begin final coordinates
     new unit-cell volume =   1103.71273 a.u.^3 (   163.55335 Ang^3 )
     density =      2.28115 g/cm^3

CELL_PARAMETERS (alat= 10.33440199)
   1.000000000   0.000000000   0.000000000
   0.000000000   1.000000000   0.000000000
   0.000000000   0.000000000   1.000000000

ATOMIC_POSITIONS (crystal)
Si       0.250000000   0.750000000   0.250000000
Si       0.000000000   0.000000000   0.500000000
Si       0.250000000   0.250000000   0.750000000
Si       0.000000000   0.500000000   0.000000000
Si       0.750000000   0.750000000   0.750000000
Si       0.500000000   0.000000000   0.000000000
Si       0.750000000   0.250000000   0.250000000
Si       0.500000000   0.500000000   0.500000000
End final coordinates

     Writing output data file pw.save/

     A final scf calculation at the relaxed structure.
     The G-vectors are recalculated for the final unit cell
     Results may differ from those at the preceding step.

     bravais-lattice index     =            0
     lattice parameter (alat)  =      10.3344  a.u.
     unit-cell volume          =    1103.7127 (a.u.)^3
     number of atoms/cell      =            8
     number of atomic types    =            1
     number of electrons       =        32.00
     number of Kohn-Sham states=           20
     kinetic-energy cutoff     =      44.0000  Ry
     charge density cutoff     =     175.0000  Ry
     convergence threshold     =      1.0E-06
     mixing beta               =       0.7000
     number of iterations used =            8  plain     mixing
     Exchange-correlation      = SLA PW PBX PBC ( 1  4  3  4 0 0)

     celldm(1)=  10.334402  celldm(2)=   0.000000  celldm(3)=   0.000000
     celldm(4)=   0.000000  celldm(5)=   0.000000  celldm(6)=   0.000000

     crystal axes: (cart. coord. in units of alat)
               a(1) = (   1.000000   0.000000   0.000000 )
               a(2) = (   0.000000   1.000000   0.000000 )
               a(3) = (   0.000000   0.000000   1.000000 )

     reciprocal axes: (cart. coord. in units 2 pi/alat)
               b(1) = (  1.000000  0.000000  0.000000 )
               b(2) = (  0.000000  1.000000  0.000000 )
               b(3) = (  0.000000  0.000000  1.000000 )

     PseudoPot. # 1 for Si read from file:
     ./potentials/Si.pbe-n-kjpaw_psl.1.0.0.UPF
     MD5 check sum: c39c59da582df4a0d9f10159256ea34e
     Pseudo is Projector augmented-wave + core cor, Zval =  4.0
     Generated using "atomic" code by A. Dal Corso v.6.3
     Shape of augmentation charge: PSQ
     Using radial grid of 1141 points,  6 beta functions with:
                l(1) =   0
                l(2) =   0
                l(3) =   1
                l(4) =   1
                l(5) =   2
                l(6) =   2
     Q(r) pseudized with 0 coefficients

     atomic species   valence    mass     pseudopotential
        Si             4.00    28.08500     Si( 1.00)

     Starting magnetic structure
     atomic species   magnetization
        Si          -0.000

     24 Sym. Ops. (no inversion) found

   Cartesian axes

     site n.     atom                  positions (alat units)
         1           Si  tau(   1) = (   0.2500000   0.7500000   0.2500000  )
         2           Si  tau(   2) = (   0.0000000   0.0000000   0.5000000  )
         3           Si  tau(   3) = (   0.2500000   0.2500000   0.7500000  )
         4           Si  tau(   4) = (   0.0000000   0.5000000   0.0000000  )
         5           Si  tau(   5) = (   0.7500000   0.7500000   0.7500000  )
         6           Si  tau(   6) = (   0.5000000   0.0000000   0.0000000  )
         7           Si  tau(   7) = (   0.7500000   0.2500000   0.2500000  )
         8           Si  tau(   8) = (   0.5000000   0.5000000   0.5000000  )

     number of k points=    10  Methfessel-Paxton smearing, width (Ry)=  0.0200
                       cart. coord. in units 2pi/alat
        k(    1) = (   0.0833333   0.0833333   0.0833333), wk =   0.0370370
        k(    2) = (   0.0833333   0.0833333   0.2500000), wk =   0.1111111
        k(    3) = (   0.0833333   0.0833333   0.4166667), wk =   0.1111111
        k(    4) = (   0.0833333   0.2500000   0.2500000), wk =   0.1111111
        k(    5) = (   0.0833333   0.2500000   0.4166667), wk =   0.2222222
        k(    6) = (   0.0833333   0.4166667   0.4166667), wk =   0.1111111
        k(    7) = (   0.2500000   0.2500000   0.2500000), wk =   0.0370370
        k(    8) = (   0.2500000   0.2500000   0.4166667), wk =   0.1111111
        k(    9) = (   0.2500000   0.4166667   0.4166667), wk =   0.1111111
        k(   10) = (   0.4166667   0.4166667   0.4166667), wk =   0.0370370

     Check: negative core charge=   -0.000001

     Initial potential from superposition of free atoms

     starting charge   31.99553, renormalised to   32.00000
     Starting wfcs are   32 randomized atomic wfcs
     Checking if some PAW data can be deallocated...

     Self-consistent Calculation

     iteration #  1     ecut=    44.00 Ry     beta= 0.70
     Davidson diagonalization with overlap
     c_bands:  1 eigenvalues not converged
     c_bands:  1 eigenvalues not converged
     ethr =  1.00E-06,  avg # of iterations = 16.1

[...]

     total energy              =    -373.81408652 Ry
     Harris-Foulkes estimate   =    -373.81408794 Ry
     estimated scf accuracy    <       0.00000270 Ry

[...]

     iteration #  6     ecut=    44.00 Ry     beta= 0.70
     Davidson diagonalization with overlap
     ethr =  8.45E-09,  avg # of iterations =  2.0

     Magnetic moment per site:
     atom:    1    charge:    1.8425    magn:    0.0000    constr:    0.0000
     atom:    2    charge:    1.8425    magn:    0.0000    constr:    0.0000
     atom:    3    charge:    1.8425    magn:    0.0000    constr:    0.0000
     atom:    4    charge:    1.8425    magn:    0.0000    constr:    0.0000
     atom:    5    charge:    1.8425    magn:    0.0000    constr:    0.0000
     atom:    6    charge:    1.8425    magn:    0.0000    constr:    0.0000
     atom:    7    charge:    1.8425    magn:    0.0000    constr:    0.0000
     atom:    8    charge:    1.8422    magn:   -0.0000    constr:    0.0000

     End of self-consistent calculation

 ------ SPIN UP ------------

[...]

 ------ SPIN DOWN ----------

[...]

          k = 0.4167 0.4167 0.4167 (  5469 PWs)   bands (ev):

    -3.8802  -3.5192  -3.5191  -3.5191  -0.7905  -0.7904  -0.7904  -0.3966
     4.2268   4.2269   4.2269   4.6322   4.6322   4.6324   4.8539   4.8539
     7.5045   7.9673   7.9673   7.9673

     the Fermi energy is     6.6051 ev

!    total energy              =    -373.81408688 Ry
     Harris-Foulkes estimate   =    -373.81408691 Ry
     estimated scf accuracy    <       0.00000007 Ry

     total all-electron energy =     -4640.581007 Ry

     The total energy is the sum of the following terms:

     one-electron contribution =      22.29603996 Ry
     hartree contribution      =       4.47523246 Ry
     xc contribution           =     -49.13249028 Ry
     ewald contribution        =     -66.71988859 Ry
     one-center paw contrib.   =    -284.73330772 Ry
     smearing contrib. (-TS)   =       0.00032729 Ry

     total magnetization       =     0.00 Bohr mag/cell
     absolute magnetization    =     0.00 Bohr mag/cell

     convergence has been achieved in   6 iterations

     Forces acting on atoms (cartesian axes, Ry/au):

     atom    1 type  1   force =     0.00008717   -0.00008717    0.00008717
     atom    2 type  1   force =     0.00000000    0.00000000    0.00000000
     atom    3 type  1   force =     0.00008717    0.00008717   -0.00008717
     atom    4 type  1   force =     0.00000000    0.00000000    0.00000000
     atom    5 type  1   force =    -0.00008717   -0.00008717   -0.00008717
     atom    6 type  1   force =     0.00000000    0.00000000    0.00000000
     atom    7 type  1   force =    -0.00008717    0.00008717    0.00008717
     atom    8 type  1   force =     0.00000000    0.00000000    0.00000000

     Total force =     0.000302     Total SCF correction =     0.000028

     Computing stress (Cartesian axis) and pressure

          total   stress  (Ry/bohr**3)                   (kbar)     P=    0.12
   0.00000081   0.00000000   0.00000000          0.12      0.00      0.00
   0.00000000   0.00000081   0.00000000          0.00      0.12      0.00
   0.00000000   0.00000000   0.00000081          0.00      0.00      0.12

     Writing output data file pw.save/

     General routines

     Parallel routines

   This run was terminated on:  11:10: 8   7Nov2020

   JOB DONE.