     Program PWSCF v.6.4.1 starts on  7Nov2020 at 13:32: 2

     R & G space division:  proc/nbgrp/npool/nimage =       2
     Waiting for input...
     Reading input from standard input

     Current dimensions of program PWSCF are:
     Max number of different atomic species (ntypx) = 10
     Max number of k-points (npk) =  40000
     Max angular momentum in pseudopotentials (lmaxx) =  3

     Subspace diagonalization in iterative solution of the eigenvalue problem:
     a serial algorithm will be used

     Found symmetry operation: I + ( -0.3333  0.3333  0.3333)
     This is a supercell, fractional translations are disabled
     Message from routine setup:
     DEPRECATED: symmetry with ibrav=0, use correct ibrav instead

     bravais-lattice index     =            0
     lattice parameter (alat)  =       9.2596  a.u.
     unit-cell volume          =    1761.1399 (a.u.)^3
     number of atoms/cell      =           36
     number of atomic types    =            1
     number of electrons       =       108.00
     number of Kohn-Sham states=           65
     kinetic-energy cutoff     =      43.0000  Ry
     charge density cutoff     =     325.0000  Ry
     convergence threshold     =      2.6E-03
     mixing beta               =       0.7000
     number of iterations used =            8  plain     mixing
     Exchange-correlation      = SLA PW PBX PBC ( 1  4  3  4 0 0)
     nstep                     =          100

     celldm(1)=   9.259620  celldm(2)=   0.000000  celldm(3)=   0.000000
     celldm(4)=   0.000000  celldm(5)=   0.000000  celldm(6)=   0.000000

     crystal axes: (cart. coord. in units of alat)
               a(1) = (   1.000000   0.000000   0.000000 )
               a(2) = (  -0.500000   0.866025   0.000000 )
               a(3) = (   0.000000   0.000000   2.561437 )

     reciprocal axes: (cart. coord. in units 2 pi/alat)
               b(1) = (  1.000000  0.577350 -0.000000 )
               b(2) = (  0.000000  1.154701  0.000000 )
               b(3) = (  0.000000 -0.000000  0.390406 )

     PseudoPot. # 1 for B  read from file:
     ./potentials/B.pbe-n-kjpaw_psl.1.0.0.UPF
     MD5 check sum: 8c825a5969375aca5c2c6ad5945b3059
     Pseudo is Projector augmented-wave + core cor, Zval =  3.0
     Generated using "atomic" code by A. Dal Corso v.6.3
     Shape of augmentation charge: PSQ
     Using radial grid of 1059 points,  4 beta functions with:
                l(1) =   0
                l(2) =   0
                l(3) =   1
                l(4) =   1
     Q(r) pseudized with 0 coefficients

     atomic species   valence    mass     pseudopotential
        B              3.00    10.81350     B ( 1.00)

     Starting magnetic structure
     atomic species   magnetization
        B            1.000

     12 Sym. Ops., with inversion, found

   Cartesian axes

     site n.     atom                  positions (alat units)
         1           B   tau(   1) = (   0.3218630   0.1858277   0.5760245  )
         2           B   tau(   2) = (   0.5000000   0.4943700   0.5760245  )
         3           B   tau(   3) = (   0.6781370   0.1858277   0.5760245  )
         4           B   tau(   4) = (   0.8218630   0.1028474   0.2777879  )
         5           B   tau(   5) = (   0.1781370   0.1028474   0.2777879  )
         6           B   tau(   6) = (   0.5000000   0.6603305   0.2777879  )
         7           B   tau(   7) = (   0.2046640   0.6955131   0.0620875  )
         8           B   tau(   8) = (   0.0000000   0.3410246   0.0620875  )
         9           B   tau(   9) = (  -0.2046640   0.6955131   0.0620875  )
        10           B   tau(  10) = (   0.2046640   0.4591875   0.7917248  )
        11           B   tau(  11) = (  -0.2046640   0.4591875   0.7917248  )
        12           B   tau(  12) = (   0.0000000   0.8136759   0.7917248  )
        13           B   tau(  13) = (  -0.1781370   0.4745028   1.4298369  )
        14           B   tau(  14) = (  -0.0000000   0.7830452   1.4298369  )
        15           B   tau(  15) = (   0.1781370   0.4745028   1.4298369  )
        16           B   tau(  16) = (   0.3218630   0.3915226   1.1316002  )
        17           B   tau(  17) = (   0.6781370   0.3915226   1.1316002  )
        18           B   tau(  18) = (   0.5000000   0.0829802   1.1316002  )
        19           B   tau(  19) = (   0.2046640   0.1181628   0.9158999  )
        20           B   tau(  20) = (   0.5000000   0.6296998   0.9158999  )
        21           B   tau(  21) = (   0.7953360   0.1181628   0.9158999  )
        22           B   tau(  22) = (  -0.2953360   0.7478626   1.6455372  )
        23           B   tau(  23) = (   0.2953360   0.7478626   1.6455372  )
        24           B   tau(  24) = (   0.0000000   0.2363256   1.6455372  )
        25           B   tau(  25) = (   0.3218630   0.7631780   2.2836492  )
        26           B   tau(  26) = (   0.0000000   0.2056949   2.2836492  )
        27           B   tau(  27) = (  -0.3218630   0.7631780   2.2836492  )
        28           B   tau(  28) = (  -0.1781370   0.6801977   1.9854126  )
        29           B   tau(  29) = (   0.1781370   0.6801977   1.9854126  )
        30           B   tau(  30) = (  -0.0000000   0.3716554   1.9854126  )
        31           B   tau(  31) = (   0.7046640   0.4068380   1.7697123  )
        32           B   tau(  32) = (   0.5000000   0.0523495   1.7697123  )
        33           B   tau(  33) = (   0.2953360   0.4068380   1.7697123  )
        34           B   tau(  34) = (   0.7046640   0.1705123   2.4993496  )
        35           B   tau(  35) = (   0.2953360   0.1705123   2.4993496  )
        36           B   tau(  36) = (   0.5000000   0.5250008   2.4993496  )

     number of k points=    21  Methfessel-Paxton smearing, width (Ry)=  0.0200
                       cart. coord. in units 2pi/alat
        k(    1) = (   0.0833333   0.1443376   0.0976015), wk =   0.0555556
        k(    2) = (   0.0833333   0.3367877   0.0976015), wk =   0.0555556
        k(    3) = (   0.0833333   0.5292377   0.0976015), wk =   0.0555556
        k(    4) = (   0.0833333  -0.4330127   0.0976015), wk =   0.0555556
        k(    5) = (   0.0833333  -0.2405626   0.0976015), wk =   0.0555556
        k(    6) = (   0.0833333  -0.0481125   0.0976015), wk =   0.0277778
        k(    7) = (   0.2500000   0.4330127   0.0976015), wk =   0.0555556
        k(    8) = (   0.2500000   0.6254628   0.0976015), wk =   0.0555556
        k(    9) = (   0.2500000  -0.3367877   0.0976015), wk =   0.0555556
        k(   10) = (   0.2500000  -0.1443376   0.0976015), wk =   0.0277778
        k(   11) = (   0.4166667   0.7216878   0.0976015), wk =   0.0555556
        k(   12) = (   0.4166667  -0.2405626   0.0976015), wk =   0.0277778
        k(   13) = (  -0.0833333   0.3367877  -0.0976015), wk =   0.0555556
        k(   14) = (  -0.0833333   0.5292377  -0.0976015), wk =   0.0555556
        k(   15) = (  -0.0833333  -0.4330127  -0.0976015), wk =   0.0555556
        k(   16) = (  -0.0833333  -0.2405626  -0.0976015), wk =   0.0555556
        k(   17) = (  -0.0833333  -0.0481125  -0.0976015), wk =   0.0277778
        k(   18) = (  -0.2500000   0.6254628  -0.0976015), wk =   0.0555556
        k(   19) = (  -0.2500000  -0.3367877  -0.0976015), wk =   0.0555556
        k(   20) = (  -0.2500000  -0.1443376  -0.0976015), wk =   0.0277778
        k(   21) = (  -0.4166667  -0.2405626  -0.0976015), wk =   0.0277778

     Check: negative core charge=   -0.000001

     Initial potential from superposition of free atoms

     starting charge  107.98983, renormalised to  108.00000

     negative rho (up, down):  0.000E+00 2.299E-01
     Starting wfcs are  144 randomized atomic wfcs
     Checking if some PAW data can be deallocated...

     Self-consistent Calculation

     iteration #  1     ecut=    43.00 Ry     beta= 0.70
     Davidson diagonalization with overlap
     ethr =  1.00E-02,  avg # of iterations =  2.0

     total energy              =    -408.17282922 Ry
     Harris-Foulkes estimate   =    -398.06033367 Ry
     estimated scf accuracy    <       4.00592555 Ry

     total magnetization       =    16.89 Bohr mag/cell
     absolute magnetization    =    16.90 Bohr mag/cell

[...]

     Magnetic moment per site:
     atom:    1    charge:    1.2875    magn:   -0.0006    constr:    0.0000
     atom:    2    charge:    1.2875    magn:   -0.0006    constr:    0.0000
     atom:    3    charge:    1.2875    magn:   -0.0006    constr:    0.0000
     atom:    4    charge:    1.2867    magn:   -0.0007    constr:    0.0000
     atom:    5    charge:    1.2867    magn:   -0.0007    constr:    0.0000
     atom:    6    charge:    1.2867    magn:   -0.0007    constr:    0.0000
     atom:    7    charge:    1.2004    magn:    0.0002    constr:    0.0000
     atom:    8    charge:    1.2004    magn:    0.0002    constr:    0.0000
     atom:    9    charge:    1.2004    magn:    0.0002    constr:    0.0000
     atom:   10    charge:    1.2014    magn:    0.0001    constr:    0.0000
     atom:   11    charge:    1.2014    magn:    0.0001    constr:    0.0000
     atom:   12    charge:    1.2014    magn:    0.0001    constr:    0.0000
     atom:   13    charge:    1.2836    magn:   -0.0006    constr:    0.0000
     atom:   14    charge:    1.2836    magn:   -0.0006    constr:    0.0000
     atom:   15    charge:    1.2836    magn:   -0.0006    constr:    0.0000
     atom:   16    charge:    1.2836    magn:   -0.0006    constr:    0.0000
     atom:   17    charge:    1.2836    magn:   -0.0006    constr:    0.0000
     atom:   18    charge:    1.2836    magn:   -0.0006    constr:    0.0000
     atom:   19    charge:    1.2001    magn:    0.0002    constr:    0.0000
     atom:   20    charge:    1.2001    magn:    0.0002    constr:    0.0000
     atom:   21    charge:    1.2001    magn:    0.0002    constr:    0.0000
     atom:   22    charge:    1.2001    magn:    0.0002    constr:    0.0000
     atom:   23    charge:    1.2001    magn:    0.0002    constr:    0.0000
     atom:   24    charge:    1.2001    magn:    0.0002    constr:    0.0000
     atom:   25    charge:    1.2867    magn:   -0.0007    constr:    0.0000
     atom:   26    charge:    1.2867    magn:   -0.0007    constr:    0.0000
     atom:   27    charge:    1.2867    magn:   -0.0007    constr:    0.0000
     atom:   28    charge:    1.2875    magn:   -0.0006    constr:    0.0000
     atom:   29    charge:    1.2875    magn:   -0.0006    constr:    0.0000
     atom:   30    charge:    1.2875    magn:   -0.0006    constr:    0.0000
     atom:   31    charge:    1.2014    magn:    0.0001    constr:    0.0000
     atom:   32    charge:    1.2014    magn:    0.0001    constr:    0.0000
     atom:   33    charge:    1.2014    magn:    0.0001    constr:    0.0000
     atom:   34    charge:    1.2004    magn:    0.0002    constr:    0.0000
     atom:   35    charge:    1.2004    magn:    0.0002    constr:    0.0000
     atom:   36    charge:    1.2004    magn:    0.0002    constr:    0.0000

     End of self-consistent calculation

 ------ SPIN UP ------------

          k = 0.0833 0.1443 0.0976 (  8408 PWs)   bands (ev):

[...]
B        0.469789250   0.530210750   0.309133058
B        0.060421500   0.530210750   0.309133058
B        0.469789250   0.939578500   0.309133058
B        0.095626929   0.547813470   0.558234619
B        0.452186530   0.904373071   0.558234619
B        0.452186530   0.547813470   0.558234619
B        0.547813470   0.452186530   0.441765381
B        0.904373071   0.452186530   0.441765381
B        0.547813470   0.095626929   0.441765381
B        0.272904752   0.136452381   0.357485083
B        0.863547619   0.727095248   0.357485083
B        0.863547619   0.136452381   0.357485083
B        0.136452381   0.863547619   0.642514917
B        0.727095248   0.863547619   0.642514917
B        0.136452381   0.272904752   0.642514917
B        0.762353522   0.881176761   0.891534168
B        0.118823239   0.237646478   0.891534168
B        0.118823239   0.881176761   0.891534168
B        0.214481651   0.785518349   0.775109557
B        0.571036687   0.785518349   0.775109557
B        0.214481651   0.428963313   0.775109557
B        0.939578500   0.469789250   0.690866942
B        0.530210750   0.060421500   0.690866942
B        0.530210750   0.469789250   0.690866942
B        0.803081269   0.196918731   0.975798969
B        0.393837452   0.196918731   0.975798969
B        0.803081269   0.606162548   0.975798969
End final coordinates

     Writing output data file pw.save/

     A final scf calculation at the relaxed structure.
     The G-vectors are recalculated for the final unit cell
     Results may differ from those at the preceding step.

     bravais-lattice index     =            0
     lattice parameter (alat)  =       9.2596  a.u.
     unit-cell volume          =    1762.3978 (a.u.)^3
     number of atoms/cell      =           36
     number of atomic types    =            1
     number of electrons       =       108.00
     number of Kohn-Sham states=           65
     kinetic-energy cutoff     =      43.0000  Ry
     charge density cutoff     =     325.0000  Ry
     convergence threshold     =      2.6E-05
     mixing beta               =       0.7000
     number of iterations used =            8  plain     mixing
     Exchange-correlation      = SLA PW PBX PBC ( 1  4  3  4 0 0)

     celldm(1)=   9.259620  celldm(2)=   0.000000  celldm(3)=   0.000000
     celldm(4)=   0.000000  celldm(5)=   0.000000  celldm(6)=   0.000000

     crystal axes: (cart. coord. in units of alat)
               a(1) = (   1.000057   0.000000  -0.000000 )
               a(2) = (  -0.500029   0.866075   0.000000 )
               a(3) = (   0.000000   0.000000   2.562974 )

     reciprocal axes: (cart. coord. in units 2 pi/alat)
               b(1) = (  0.999943  0.577317 -0.000000 )
               b(2) = ( -0.000000  1.154635 -0.000000 )
               b(3) = (  0.000000  0.000000  0.390172 )

     PseudoPot. # 1 for B  read from file:
     ./potentials/B.pbe-n-kjpaw_psl.1.0.0.UPF
     MD5 check sum: 8c825a5969375aca5c2c6ad5945b3059
     Pseudo is Projector augmented-wave + core cor, Zval =  3.0
     Generated using "atomic" code by A. Dal Corso v.6.3
     Shape of augmentation charge: PSQ
     Using radial grid of 1059 points,  4 beta functions with:
                l(1) =   0
                l(2) =   0
                l(3) =   1
                l(4) =   1
     Q(r) pseudized with 0 coefficients

     atomic species   valence    mass     pseudopotential
        B              3.00    10.81350     B ( 1.00)

     Starting magnetic structure
     atomic species   magnetization
        B           -0.000

     12 Sym. Ops., with inversion, found

   Cartesian axes

     site n.     atom                  positions (alat units)
         1           B   tau(   1) = (   0.3217409   0.1857572   0.5763883  )
         2           B   tau(   2) = (   0.5000286   0.4945605   0.5763883  )
         3           B   tau(   3) = (   0.6783163   0.1857572   0.5763883  )
         4           B   tau(   4) = (   0.8218121   0.1029098   0.2779951  )
         5           B   tau(   5) = (   0.1782450   0.1029098   0.2779951  )
         6           B   tau(   6) = (   0.5000286   0.6602552   0.2779951  )
         7           B   tau(   7) = (   0.2046336   0.6955285   0.0620266  )
         8           B   tau(   8) = (   0.0000000   0.3410927   0.0620266  )
         9           B   tau(   9) = (  -0.2046336   0.6955285   0.0620266  )
        10           B   tau(  10) = (   0.2046956   0.4592022   0.7922999  )
        11           B   tau(  11) = (  -0.2046956   0.4592022   0.7922999  )
        12           B   tau(  12) = (   0.0000000   0.8137453   0.7922999  )
        13           B   tau(  13) = (  -0.1782900   0.4744475   1.4307407  )
        14           B   tau(  14) = (  -0.0000000   0.7832548   1.4307407  )
        15           B   tau(  15) = (   0.1782900   0.4744475   1.4307407  )
        16           B   tau(  16) = (   0.3217386   0.3916274   1.1322331  )
        17           B   tau(  17) = (   0.6783186   0.3916274   1.1322331  )
        18           B   tau(  18) = (   0.5000286   0.0828201   1.1322331  )
        19           B   tau(  19) = (   0.2046903   0.1181780   0.9162249  )
        20           B   tau(  20) = (   0.5000286   0.6297189   0.9162249  )
        21           B   tau(  21) = (   0.7953669   0.1181780   0.9162249  )
        22           B   tau(  22) = (  -0.2953383   0.7478969   1.6467489  )
        23           B   tau(  23) = (   0.2953383   0.7478969   1.6467489  )
        24           B   tau(  24) = (   0.0000000   0.2363559   1.6467489  )
        25           B   tau(  25) = (   0.3217835   0.7631651   2.2849787  )
        26           B   tau(  26) = (   0.0000000   0.2058196   2.2849787  )
        27           B   tau(  27) = (  -0.3217835   0.7631651   2.2849787  )
        28           B   tau(  28) = (  -0.1782877   0.6803177   1.9865854  )
        29           B   tau(  29) = (   0.1782877   0.6803177   1.9865854  )
        30           B   tau(  30) = (  -0.0000000   0.3715143   1.9865854  )
        31           B   tau(  31) = (   0.7047241   0.4068727   1.7706738  )
        32           B   tau(  32) = (   0.5000286   0.0523295   1.7706738  )
        33           B   tau(  33) = (   0.2953330   0.4068727   1.7706738  )
        34           B   tau(  34) = (   0.7046622   0.1705464   2.5009471  )
        35           B   tau(  35) = (   0.2953950   0.1705464   2.5009471  )
        36           B   tau(  36) = (   0.5000286   0.5249822   2.5009471  )

     number of k points=    21  Methfessel-Paxton smearing, width (Ry)=  0.0200
                       cart. coord. in units 2pi/alat
        k(    1) = (   0.0833286   0.1443293   0.0975429), wk =   0.0555556
        k(    2) = (   0.0833286   0.3367684   0.0975429), wk =   0.0555556
        k(    3) = (   0.0833286   0.5292075   0.0975429), wk =   0.0555556
        k(    4) = (   0.0833286  -0.4329880   0.0975429), wk =   0.0555556
        k(    5) = (   0.0833286  -0.2405489   0.0975429), wk =   0.0555556
        k(    6) = (   0.0833286  -0.0481098   0.0975429), wk =   0.0277778
        k(    7) = (   0.2499857   0.4329880   0.0975429), wk =   0.0555556
        k(    8) = (   0.2499857   0.6254271   0.0975429), wk =   0.0555556
        k(    9) = (   0.2499857  -0.3367684   0.0975429), wk =   0.0555556
        k(   10) = (   0.2499857  -0.1443293   0.0975429), wk =   0.0277778
        k(   11) = (   0.4166429   0.7216466   0.0975429), wk =   0.0555556
        k(   12) = (   0.4166429  -0.2405489   0.0975429), wk =   0.0277778
        k(   13) = (  -0.0833286   0.3367684  -0.0975429), wk =   0.0555556
        k(   14) = (  -0.0833286   0.5292075  -0.0975429), wk =   0.0555556
        k(   15) = (  -0.0833286  -0.4329880  -0.0975429), wk =   0.0555556
        k(   16) = (  -0.0833286  -0.2405489  -0.0975429), wk =   0.0555556
        k(   17) = (  -0.0833286  -0.0481098  -0.0975429), wk =   0.0277778
        k(   18) = (  -0.2499857   0.6254271  -0.0975429), wk =   0.0555556
        k(   19) = (  -0.2499857  -0.3367684  -0.0975429), wk =   0.0555556
        k(   20) = (  -0.2499857  -0.1443293  -0.0975429), wk =   0.0277778
        k(   21) = (  -0.4166429  -0.2405489  -0.0975429), wk =   0.0277778

     Check: negative core charge=   -0.000001

     Initial potential from superposition of free atoms

     starting charge  107.98983, renormalised to  108.00000
     Starting wfcs are  144 randomized atomic wfcs
     Checking if some PAW data can be deallocated...

     Self-consistent Calculation

[...]

     total energy              =    -412.51679546 Ry
     Harris-Foulkes estimate   =    -412.51681049 Ry
     estimated scf accuracy    <       0.00005319 Ry

[...]

     iteration #  8     ecut=    43.00 Ry     beta= 0.70
     Davidson diagonalization with overlap
     ethr =  4.51E-08,  avg # of iterations =  2.2

     Magnetic moment per site:
     atom:    1    charge:    1.2874    magn:   -0.0000    constr:    0.0000
     atom:    2    charge:    1.2874    magn:   -0.0000    constr:    0.0000
     atom:    3    charge:    1.2874    magn:   -0.0000    constr:    0.0000
     atom:    4    charge:    1.2871    magn:    0.0000    constr:    0.0000
     atom:    5    charge:    1.2871    magn:    0.0000    constr:    0.0000
     atom:    6    charge:    1.2871    magn:    0.0000    constr:    0.0000
     atom:    7    charge:    1.1984    magn:    0.0000    constr:    0.0000
     atom:    8    charge:    1.1984    magn:    0.0000    constr:    0.0000
     atom:    9    charge:    1.1984    magn:    0.0000    constr:    0.0000
     atom:   10    charge:    1.1990    magn:   -0.0000    constr:    0.0000
     atom:   11    charge:    1.1990    magn:   -0.0000    constr:    0.0000
     atom:   12    charge:    1.1990    magn:   -0.0000    constr:    0.0000
     atom:   13    charge:    1.2867    magn:    0.0000    constr:    0.0000
     atom:   14    charge:    1.2867    magn:    0.0000    constr:    0.0000
     atom:   15    charge:    1.2867    magn:    0.0000    constr:    0.0000
     atom:   16    charge:    1.2867    magn:    0.0000    constr:    0.0000
     atom:   17    charge:    1.2867    magn:    0.0000    constr:    0.0000
     atom:   18    charge:    1.2867    magn:    0.0000    constr:    0.0000
     atom:   19    charge:    1.1989    magn:    0.0000    constr:    0.0000
     atom:   20    charge:    1.1989    magn:    0.0000    constr:    0.0000
     atom:   21    charge:    1.1989    magn:    0.0000    constr:    0.0000
     atom:   22    charge:    1.1989    magn:    0.0000    constr:    0.0000
     atom:   23    charge:    1.1989    magn:    0.0000    constr:    0.0000
     atom:   24    charge:    1.1989    magn:    0.0000    constr:    0.0000
     atom:   25    charge:    1.2871    magn:    0.0000    constr:    0.0000
     atom:   26    charge:    1.2871    magn:    0.0000    constr:    0.0000
     atom:   27    charge:    1.2871    magn:    0.0000    constr:    0.0000
     atom:   28    charge:    1.2874    magn:   -0.0000    constr:    0.0000
     atom:   29    charge:    1.2874    magn:   -0.0000    constr:    0.0000
     atom:   30    charge:    1.2874    magn:   -0.0000    constr:    0.0000
     atom:   31    charge:    1.1990    magn:   -0.0000    constr:    0.0000
     atom:   32    charge:    1.1990    magn:   -0.0000    constr:    0.0000
     atom:   33    charge:    1.1990    magn:   -0.0000    constr:    0.0000
     atom:   34    charge:    1.1984    magn:    0.0000    constr:    0.0000
     atom:   35    charge:    1.1984    magn:    0.0000    constr:    0.0000
     atom:   36    charge:    1.1984    magn:    0.0000    constr:    0.0000

     End of self-consistent calculation

 ------ SPIN UP ------------

[...]

 ------ SPIN DOWN ----------

[...]

          k = 0.4166-0.2405 0.0975 (  8385 PWs)   bands (ev):

[...]

          k =-0.4166-0.2405-0.0975 (  8385 PWs)   bands (ev):

    -6.3859  -6.1947  -6.1250  -4.0341  -4.0269  -3.8567  -2.7186  -2.3117
    -2.2405  -2.0564  -1.8374  -1.6880  -0.9810  -0.7121  -0.4633   0.0455
     0.7032   1.5158   1.5763   2.1730   2.3320   2.5137   3.0483   3.0640
     3.2338   3.2777   3.3007   3.3456   3.4678   3.5596   3.5673   4.7858
     4.9097   5.0073   5.2234   5.2647   5.3449   5.4321   5.6418   5.7544
     5.8245   5.9813   5.9951   6.1814   6.5352   6.6496   6.7394   6.8096
     6.9161   6.9254   6.9699   7.2918   7.5359   8.3396  10.4787  10.7694
    10.9837  11.9769  12.1545  12.2528  12.4125  12.4341  12.8151  12.9429
    13.3959

     the Fermi energy is    10.4112 ev

!    total energy              =    -412.51680057 Ry
     Harris-Foulkes estimate   =    -412.51680379 Ry
     estimated scf accuracy    <       0.00000346 Ry

     total all-electron energy =     -1789.133303 Ry

     The total energy is the sum of the following terms:

     one-electron contribution =      80.72845190 Ry
     hartree contribution      =      24.97425242 Ry
     xc contribution           =    -107.01971586 Ry
     ewald contribution        =    -223.62673583 Ry
     one-center paw contrib.   =    -187.57550955 Ry
     smearing contrib. (-TS)   =       0.00245634 Ry

     total magnetization       =    -0.00 Bohr mag/cell
     absolute magnetization    =     0.00 Bohr mag/cell

     convergence has been achieved in   8 iterations

     Forces acting on atoms (cartesian axes, Ry/au):

     atom    1 type  1   force =     0.00053643    0.00030971   -0.00054541
     atom    2 type  1   force =    -0.00000000   -0.00061942   -0.00054541
     atom    3 type  1   force =    -0.00053643    0.00030971   -0.00054541
     atom    4 type  1   force =     0.00024676   -0.00014247    0.00023361
     atom    5 type  1   force =    -0.00024676   -0.00014247    0.00023361
     atom    6 type  1   force =    -0.00000000    0.00028494    0.00023361
     atom    7 type  1   force =     0.00037761    0.00021801    0.00011122
     atom    8 type  1   force =     0.00000000   -0.00043603    0.00011122
     atom    9 type  1   force =    -0.00037761    0.00021801    0.00011122
     atom   10 type  1   force =     0.00000220   -0.00000127   -0.00029432
     atom   11 type  1   force =    -0.00000220   -0.00000127   -0.00029432
     atom   12 type  1   force =     0.00000000    0.00000254   -0.00029432
     atom   13 type  1   force =     0.00045376    0.00026198   -0.00049277
     atom   14 type  1   force =     0.00000000   -0.00052396   -0.00049277
     atom   15 type  1   force =    -0.00045376    0.00026198   -0.00049277
     atom   16 type  1   force =     0.00045376   -0.00026198    0.00049277
     atom   17 type  1   force =    -0.00045376   -0.00026198    0.00049277
     atom   18 type  1   force =    -0.00000000    0.00052396    0.00049277
     atom   19 type  1   force =     0.00001523    0.00000879    0.00042168
     atom   20 type  1   force =     0.00000000   -0.00001759    0.00042168
     atom   21 type  1   force =    -0.00001523    0.00000879    0.00042168
     atom   22 type  1   force =     0.00001523   -0.00000879   -0.00042168
     atom   23 type  1   force =    -0.00001523   -0.00000879   -0.00042168
     atom   24 type  1   force =    -0.00000000    0.00001759   -0.00042168
     atom   25 type  1   force =     0.00024676    0.00014247   -0.00023361
     atom   26 type  1   force =     0.00000000   -0.00028494   -0.00023361
     atom   27 type  1   force =    -0.00024676    0.00014247   -0.00023361
     atom   28 type  1   force =     0.00053643   -0.00030971    0.00054541
     atom   29 type  1   force =    -0.00053643   -0.00030971    0.00054541
     atom   30 type  1   force =    -0.00000000    0.00061942    0.00054541
     atom   31 type  1   force =     0.00000220    0.00000127    0.00029432
     atom   32 type  1   force =     0.00000000   -0.00000254    0.00029432
     atom   33 type  1   force =    -0.00000220    0.00000127    0.00029432
     atom   34 type  1   force =     0.00037761   -0.00021801   -0.00011122
     atom   35 type  1   force =    -0.00037761   -0.00021801   -0.00011122
     atom   36 type  1   force =    -0.00000000    0.00043603   -0.00011122

     Total force =     0.003288     Total SCF correction =     0.004438
     SCF correction compared to forces is large: reduce conv_thr to get better values

     Computing stress (Cartesian axis) and pressure

          total   stress  (Ry/bohr**3)                   (kbar)     P=    0.30
   0.00000364  -0.00000000  -0.00000000          0.54     -0.00     -0.00
  -0.00000000   0.00000364  -0.00000000         -0.00      0.54     -0.00
   0.00000000   0.00000000  -0.00000112          0.00      0.00     -0.16

     Writing output data file pw.save/

     General routines

     Parallel routines

   This run was terminated on:  14:21:15   7Nov2020

   JOB DONE.