     Program PWSCF v.6.4.1 starts on  6Nov2020 at 14:17: 8

     R & G space division:  proc/nbgrp/npool/nimage =       2
     Waiting for input...
     Reading input from standard input

     Current dimensions of program PWSCF are:
     Max number of different atomic species (ntypx) = 10
     Max number of k-points (npk) =  40000
     Max angular momentum in pseudopotentials (lmaxx) =  3
               file Cd.pbe-n-kjpaw_psl.1.0.0.UPF: wavefunction(s)  5S 4D renormalized

     Subspace diagonalization in iterative solution of the eigenvalue problem:
     a serial algorithm will be used

     Message from routine setup:
     DEPRECATED: symmetry with ibrav=0, use correct ibrav instead

     bravais-lattice index     =            0
     lattice parameter (alat)  =       5.6840  a.u.
     unit-cell volume          =     314.1739 (a.u.)^3
     number of atoms/cell      =            2
     number of atomic types    =            1
     number of electrons       =        24.00
     number of Kohn-Sham states=           16
     kinetic-energy cutoff     =      37.0000  Ry
     charge density cutoff     =     638.0000  Ry
     convergence threshold     =      1.0E-06
     mixing beta               =       0.7000
     number of iterations used =            8  plain     mixing
     Exchange-correlation      = SLA PW PBX PBC ( 1  4  3  4 0 0)
     nstep                     =           50

     celldm(1)=   5.684013  celldm(2)=   0.000000  celldm(3)=   0.000000
     celldm(4)=   0.000000  celldm(5)=   0.000000  celldm(6)=   0.000000

     crystal axes: (cart. coord. in units of alat)
               a(1) = (   1.000000   0.000000   0.000000 )
               a(2) = (  -0.500000   0.866025   0.000000 )
               a(3) = (   0.000000   0.000000   1.975488 )

     reciprocal axes: (cart. coord. in units 2 pi/alat)
               b(1) = (  1.000000  0.577350 -0.000000 )
               b(2) = (  0.000000  1.154701  0.000000 )
               b(3) = (  0.000000 -0.000000  0.506204 )

     PseudoPot. # 1 for Cd read from file:
     ./potentials/Cd.pbe-n-kjpaw_psl.1.0.0.UPF
     MD5 check sum: f937b97fdfaed69b45145e9d47a28171
     Pseudo is Projector augmented-wave + core cor, Zval = 12.0
     Generated using "atomic" code by A. Dal Corso v.6.3
     Shape of augmentation charge: PSQ
     Using radial grid of 1239 points,  6 beta functions with:
                l(1) =   0
                l(2) =   0
                l(3) =   1
                l(4) =   1
                l(5) =   2
                l(6) =   2
     Q(r) pseudized with 0 coefficients

     atomic species   valence    mass     pseudopotential
        Cd            12.00   112.41100     Cd( 1.00)

     Starting magnetic structure
     atomic species   magnetization
        Cd           1.000

     24 Sym. Ops., with inversion, found (12 have fractional translation)

   Cartesian axes

     site n.     atom                  positions (alat units)
         1           Cd  tau(   1) = (   0.5000000   0.2886751   1.4816158  )
         2           Cd  tau(   2) = (  -0.0000000   0.5773503   0.4938719  )

     number of k points=    84  Methfessel-Paxton smearing, width (Ry)=  0.0200
                       cart. coord. in units 2pi/alat
        k(    1) = (   0.0416667   0.0721688   0.0632755), wk =   0.0069444
        k(    2) = (   0.0416667   0.0721688   0.1898265), wk =   0.0069444
        k(    3) = (   0.0416667   0.1683938   0.0632755), wk =   0.0138889
        k(    4) = (   0.0416667   0.1683938   0.1898265), wk =   0.0138889
        k(    5) = (   0.0416667   0.2646189   0.0632755), wk =   0.0138889
        k(    6) = (   0.0416667   0.2646189   0.1898265), wk =   0.0138889
        k(    7) = (   0.0416667   0.3608439   0.0632755), wk =   0.0138889
        k(    8) = (   0.0416667   0.3608439   0.1898265), wk =   0.0138889
        k(    9) = (   0.0416667   0.4570690   0.0632755), wk =   0.0138889
        k(   10) = (   0.0416667   0.4570690   0.1898265), wk =   0.0138889
        k(   11) = (   0.0416667   0.5532940   0.0632755), wk =   0.0138889
        k(   12) = (   0.0416667   0.5532940   0.1898265), wk =   0.0138889
        k(   13) = (   0.0416667  -0.5051815   0.0632755), wk =   0.0138889
        k(   14) = (   0.0416667  -0.5051815   0.1898265), wk =   0.0138889
        k(   15) = (   0.0416667  -0.4089564   0.0632755), wk =   0.0138889
        k(   16) = (   0.0416667  -0.4089564   0.1898265), wk =   0.0138889
        k(   17) = (   0.0416667  -0.3127314   0.0632755), wk =   0.0138889
        k(   18) = (   0.0416667  -0.3127314   0.1898265), wk =   0.0138889
        k(   19) = (   0.0416667  -0.2165064   0.0632755), wk =   0.0138889
        k(   20) = (   0.0416667  -0.2165064   0.1898265), wk =   0.0138889
        k(   21) = (   0.0416667  -0.1202813   0.0632755), wk =   0.0138889
        k(   22) = (   0.0416667  -0.1202813   0.1898265), wk =   0.0138889
        k(   23) = (   0.0416667  -0.0240563   0.0632755), wk =   0.0069444
        k(   24) = (   0.0416667  -0.0240563   0.1898265), wk =   0.0069444
        k(   25) = (   0.1250000   0.2165064   0.0632755), wk =   0.0069444
        k(   26) = (   0.1250000   0.2165064   0.1898265), wk =   0.0069444
        k(   27) = (   0.1250000   0.3127314   0.0632755), wk =   0.0138889
        k(   28) = (   0.1250000   0.3127314   0.1898265), wk =   0.0138889
        k(   29) = (   0.1250000   0.4089564   0.0632755), wk =   0.0138889
        k(   30) = (   0.1250000   0.4089564   0.1898265), wk =   0.0138889
        k(   31) = (   0.1250000   0.5051815   0.0632755), wk =   0.0138889
        k(   32) = (   0.1250000   0.5051815   0.1898265), wk =   0.0138889
        k(   33) = (   0.1250000   0.6014065   0.0632755), wk =   0.0138889
        k(   34) = (   0.1250000   0.6014065   0.1898265), wk =   0.0138889
        k(   35) = (   0.1250000  -0.4570690   0.0632755), wk =   0.0138889
        k(   36) = (   0.1250000  -0.4570690   0.1898265), wk =   0.0138889
        k(   37) = (   0.1250000  -0.3608439   0.0632755), wk =   0.0138889
        k(   38) = (   0.1250000  -0.3608439   0.1898265), wk =   0.0138889
        k(   39) = (   0.1250000  -0.2646189   0.0632755), wk =   0.0138889
        k(   40) = (   0.1250000  -0.2646189   0.1898265), wk =   0.0138889
        k(   41) = (   0.1250000  -0.1683938   0.0632755), wk =   0.0138889
        k(   42) = (   0.1250000  -0.1683938   0.1898265), wk =   0.0138889
        k(   43) = (   0.1250000  -0.0721688   0.0632755), wk =   0.0069444
        k(   44) = (   0.1250000  -0.0721688   0.1898265), wk =   0.0069444
        k(   45) = (   0.2083333   0.3608439   0.0632755), wk =   0.0069444
        k(   46) = (   0.2083333   0.3608439   0.1898265), wk =   0.0069444
        k(   47) = (   0.2083333   0.4570690   0.0632755), wk =   0.0138889
        k(   48) = (   0.2083333   0.4570690   0.1898265), wk =   0.0138889
        k(   49) = (   0.2083333   0.5532940   0.0632755), wk =   0.0138889
        k(   50) = (   0.2083333   0.5532940   0.1898265), wk =   0.0138889
        k(   51) = (   0.2083333   0.6495191   0.0632755), wk =   0.0138889
        k(   52) = (   0.2083333   0.6495191   0.1898265), wk =   0.0138889
        k(   53) = (   0.2083333  -0.4089564   0.0632755), wk =   0.0138889
        k(   54) = (   0.2083333  -0.4089564   0.1898265), wk =   0.0138889
        k(   55) = (   0.2083333  -0.3127314   0.0632755), wk =   0.0138889
        k(   56) = (   0.2083333  -0.3127314   0.1898265), wk =   0.0138889
        k(   57) = (   0.2083333  -0.2165064   0.0632755), wk =   0.0138889
        k(   58) = (   0.2083333  -0.2165064   0.1898265), wk =   0.0138889
        k(   59) = (   0.2083333  -0.1202813   0.0632755), wk =   0.0069444
        k(   60) = (   0.2083333  -0.1202813   0.1898265), wk =   0.0069444
[...]
        k(   70) = (   0.2916667  -0.2646189   0.1898265), wk =   0.0138889
        k(   71) = (   0.2916667  -0.1683938   0.0632755), wk =   0.0069444
        k(   72) = (   0.2916667  -0.1683938   0.1898265), wk =   0.0069444
        k(   73) = (   0.3750000   0.6495191   0.0632755), wk =   0.0069444
        k(   74) = (   0.3750000   0.6495191   0.1898265), wk =   0.0069444
        k(   75) = (   0.3750000   0.7457441   0.0632755), wk =   0.0138889
        k(   76) = (   0.3750000   0.7457441   0.1898265), wk =   0.0138889
        k(   77) = (   0.3750000  -0.3127314   0.0632755), wk =   0.0138889
        k(   78) = (   0.3750000  -0.3127314   0.1898265), wk =   0.0138889
        k(   79) = (   0.3750000  -0.2165064   0.0632755), wk =   0.0069444
        k(   80) = (   0.3750000  -0.2165064   0.1898265), wk =   0.0069444
        k(   81) = (   0.4583333   0.7938566   0.0632755), wk =   0.0069444
        k(   82) = (   0.4583333   0.7938566   0.1898265), wk =   0.0069444
        k(   83) = (   0.4583333  -0.2646189   0.0632755), wk =   0.0069444
        k(   84) = (   0.4583333  -0.2646189   0.1898265), wk =   0.0069444

     Initial potential from superposition of free atoms

     starting charge   23.99023, renormalised to   24.00000
     Starting wfcs are   18 randomized atomic wfcs
     Checking if some PAW data can be deallocated...

     Self-consistent Calculation

     iteration #  1     ecut=    37.00 Ry     beta= 0.70
     Davidson diagonalization with overlap
     ethr =  1.00E-02,  avg # of iterations =  3.5

     total energy              =    -763.19151893 Ry
     Harris-Foulkes estimate   =    -760.55239201 Ry
     estimated scf accuracy    <       2.90391988 Ry

     total magnetization       =     1.69 Bohr mag/cell
     absolute magnetization    =     1.69 Bohr mag/cell

[...]

     iteration #  4     ecut=    37.00 Ry     beta= 0.70
     Davidson diagonalization with overlap
     c_bands:  1 eigenvalues not converged
     ethr =  3.36E-05,  avg # of iterations =  5.0

[...]

     Magnetic moment per site:
     atom:    1    charge:   10.5753    magn:    0.0001    constr:    0.0000
     atom:    2    charge:   10.5753    magn:    0.0001    constr:    0.0000

     End of self-consistent calculation

     Number of k-points >= 100: set verbosity='high' to print the bands.

     the Fermi energy is    10.4829 ev

!    total energy              =    -763.61985492 Ry
     Harris-Foulkes estimate   =    -763.61985488 Ry
     estimated scf accuracy    <       0.00000052 Ry

     total all-electron energy =    -22378.718725 Ry

     The total energy is the sum of the following terms:

     one-electron contribution =     -38.52039478 Ry
     hartree contribution      =      45.14376684 Ry
     xc contribution           =     -45.72428589 Ry
     ewald contribution        =    -153.20323087 Ry
     one-center paw contrib.   =    -571.31551305 Ry
     smearing contrib. (-TS)   =      -0.00019717 Ry

[...]

     convergence has been achieved in   7 iterations

     Forces acting on atoms (cartesian axes, Ry/au):

     atom    1 type  1   force =     0.00000000    0.00000000    0.00000000
     atom    2 type  1   force =     0.00000000   -0.00000000    0.00000000

     Total force =     0.000000     Total SCF correction =     0.000000

     Computing stress (Cartesian axis) and pressure

          total   stress  (Ry/bohr**3)                   (kbar)     P=    2.51
   0.00002265   0.00000000   0.00000000          3.33      0.00      0.00
   0.00000000   0.00002265   0.00000000          0.00      3.33      0.00
   0.00000000   0.00000000   0.00000598          0.00      0.00      0.88

     BFGS Geometry Optimization

     number of scf cycles    =   1
     number of bfgs steps    =   0

     enthalpy new            =    -763.6198549181 Ry

     new trust radius        =       0.0020076426 bohr
     new conv_thr            =       0.0000010000 Ry

     new unit-cell volume =    314.57688 a.u.^3 (    46.61548 Ang^3 )
     density =      8.00862 g/cm^3

CELL_PARAMETERS (alat=  5.68401275)
   1.000566332   0.000000000   0.000000000
  -0.500283166   0.866515862   0.000000000
   0.000000000   0.000000000   1.975783110

ATOMIC_POSITIONS (crystal)
Cd       0.666666667   0.333333333   0.750000000
Cd       0.333333333   0.666666667   0.250000000

     Writing output data file pw.save/
     NEW-OLD atomic charge density approx. for the potential
     extrapolated charge   24.03073, renormalised to   24.00000

[...]

     enthalpy old            =    -763.6198549181 Ry
     enthalpy new            =    -763.6198441018 Ry

     CASE: enthalpy_new > enthalpy_old

[...]

     Threshold (ethr) on eigenvalues was too large:
     Diagonalizing with lowered threshold

     Davidson diagonalization with overlap
     ethr =  3.74E-08,  avg # of iterations =  1.0

[...]

     new trust radius        =       0.0000376406 bohr

     trust_radius < trust_radius_min

     resetting bfgs history

     new conv_thr            =       0.0000010000 Ry

[...]

     Threshold (ethr) on eigenvalues was too large:
     Diagonalizing with lowered threshold

     Davidson diagonalization with overlap
     ethr =  1.94E-08,  avg # of iterations =  1.2

[...]

     new trust radius        =       0.0000384996 bohr

     trust_radius < trust_radius_min

     resetting bfgs history

     new conv_thr            =       0.0000010000 Ry

[...]

     Self-consistent Calculation

[...]

     total energy              =    -763.61984392 Ry
     Harris-Foulkes estimate   =    -763.61984452 Ry
     estimated scf accuracy    <       0.00000196 Ry

[...]

     iteration #  9     ecut=    37.00 Ry     beta= 0.70
     Davidson diagonalization with overlap
     ethr =  8.16E-09,  avg # of iterations =  1.4

     Magnetic moment per site:
     atom:    1    charge:   10.5765    magn:    0.0000    constr:    0.0000
     atom:    2    charge:   10.5765    magn:    0.0000    constr:    0.0000

     End of self-consistent calculation

     Number of k-points >= 100: set verbosity='high' to print the bands.

     the Fermi energy is    10.4641 ev

!    total energy              =    -763.61984386 Ry
     Harris-Foulkes estimate   =    -763.61984409 Ry
     estimated scf accuracy    <       0.00000034 Ry

     total all-electron energy =    -22378.718714 Ry

     The total energy is the sum of the following terms:

     one-electron contribution =     -38.61352424 Ry
     hartree contribution      =      45.17467360 Ry
     xc contribution           =     -45.72297706 Ry
     ewald contribution        =    -153.14240688 Ry
     one-center paw contrib.   =    -571.31541252 Ry
     smearing contrib. (-TS)   =      -0.00019675 Ry

     total magnetization       =     0.00 Bohr mag/cell
     absolute magnetization    =     0.00 Bohr mag/cell

     convergence has been achieved in   9 iterations

     Forces acting on atoms (cartesian axes, Ry/au):

     atom    1 type  1   force =     0.00000000   -0.00000000    0.00000000
     atom    2 type  1   force =    -0.00000000    0.00000000   -0.00000000

     Total force =     0.000000     Total SCF correction =     0.000000

     Computing stress (Cartesian axis) and pressure

          total   stress  (Ry/bohr**3)                   (kbar)     P=    0.78
   0.00000975   0.00000000   0.00000000          1.43      0.00      0.00
   0.00000000   0.00000975  -0.00000000          0.00      1.43     -0.00
  -0.00000000  -0.00000000  -0.00000362         -0.00     -0.00     -0.53

     number of scf cycles    =  50
     number of bfgs steps    =   1

     enthalpy old            =    -763.6198549181 Ry
     enthalpy new            =    -763.6198438564 Ry

     CASE: enthalpy_new > enthalpy_old

     new trust radius        =       0.0004315902 bohr
     new conv_thr            =       0.0000010000 Ry

     new unit-cell volume =    314.26050 a.u.^3 (    46.56860 Ang^3 )
     density =      8.01668 g/cm^3

CELL_PARAMETERS (alat=  5.68401275)
   1.000121737   0.000000000  -0.000000000
  -0.500060869   0.866130831   0.000000000
   0.000000000   0.000000000   1.975551266

ATOMIC_POSITIONS (crystal)
Cd       0.666666667   0.333333333   0.750000000
Cd       0.333333333   0.666666667   0.250000000

     Writing output data file pw.save/
     NEW-OLD atomic charge density approx. for the potential
     extrapolated charge   23.97585, renormalised to   24.00000

     Writing output data file pw.save/

     General routines

     Parallel routines

   This run was terminated on:  15:51:26   6Nov2020

   JOB DONE.
Primary job  terminated normally, but 1 process returned
a non-zero exit code.. Per user-direction, the job has been aborted.
mpirun detected that one or more processes exited with non-zero status, thus causing
the job to be terminated. The first process to do so was:

  Process name: [[13033,1],0]
  Exit code:    3