     Program PWSCF v.6.4.1 starts on  6Nov2020 at 19:21:19

     R & G space division:  proc/nbgrp/npool/nimage =       2
     Waiting for input...
     Reading input from standard input

     Current dimensions of program PWSCF are:
     Max number of different atomic species (ntypx) = 10
     Max number of k-points (npk) =  40000
     Max angular momentum in pseudopotentials (lmaxx) =  3
               file Dy.pbe-spdn-kjpaw_psl.1.0.0.UPF: wavefunction(s)  5P renormalized

     Subspace diagonalization in iterative solution of the eigenvalue problem:
     a serial algorithm will be used

     Message from routine setup:
     DEPRECATED: symmetry with ibrav=0, use correct ibrav instead

     bravais-lattice index     =            0
     lattice parameter (alat)  =       6.7898  a.u.
     unit-cell volume          =     426.5544 (a.u.)^3
     number of atoms/cell      =            2
     number of atomic types    =            1
     number of electrons       =        22.00
     number of Kohn-Sham states=           15
     kinetic-energy cutoff     =      36.0000  Ry
     charge density cutoff     =     265.0000  Ry
     convergence threshold     =      1.0E-06
     mixing beta               =       0.7000
     number of iterations used =            8  plain     mixing
     Exchange-correlation      = SLA PW PBX PBC ( 1  4  3  4 0 0)
     nstep                     =           50

     celldm(1)=   6.789786  celldm(2)=   0.000000  celldm(3)=   0.000000
     celldm(4)=   0.000000  celldm(5)=   0.000000  celldm(6)=   0.000000

     crystal axes: (cart. coord. in units of alat)
               a(1) = (   1.000000   0.000000   0.000000 )
               a(2) = (  -0.500000   0.866025   0.000000 )
               a(3) = (   0.000000   0.000000   1.573532 )

     reciprocal axes: (cart. coord. in units 2 pi/alat)
               b(1) = (  1.000000  0.577350 -0.000000 )
               b(2) = (  0.000000  1.154701  0.000000 )
               b(3) = (  0.000000 -0.000000  0.635513 )

     PseudoPot. # 1 for Dy read from file:
     ./potentials/Dy.pbe-spdn-kjpaw_psl.1.0.0.UPF
     MD5 check sum: dcf39381811a57a3d834ca4a7f58332c
     Pseudo is Projector augmented-wave + core cor, Zval = 11.0
     Generated using "atomic" code by A. Dal Corso v.6.2.2
     Shape of augmentation charge: PSQ
     Using radial grid of 1265 points,  6 beta functions with:
                l(1) =   0
                l(2) =   0
                l(3) =   1
                l(4) =   1
                l(5) =   2
                l(6) =   2
     Q(r) pseudized with 0 coefficients

     atomic species   valence    mass     pseudopotential
        Dy            11.00   162.50000     Dy( 1.00)

     Starting magnetic structure
     atomic species   magnetization
        Dy           1.000

     24 Sym. Ops., with inversion, found (12 have fractional translation)

   Cartesian axes

     site n.     atom                  positions (alat units)
         1           Dy  tau(   1) = (   0.5000000   0.2886751   1.1801489  )
         2           Dy  tau(   2) = (  -0.0000000   0.5773503   0.3933830  )

     number of k points=    90  Methfessel-Paxton smearing, width (Ry)=  0.0200
                       cart. coord. in units 2pi/alat
        k(    1) = (   0.0500000   0.0866025   0.0529594), wk =   0.0066667
        k(    2) = (   0.0500000   0.0866025   0.1588783), wk =   0.0066667
        k(    3) = (   0.0500000   0.0866025   0.2647971), wk =   0.0066667
        k(    4) = (   0.0500000   0.2020726   0.0529594), wk =   0.0133333
        k(    5) = (   0.0500000   0.2020726   0.1588783), wk =   0.0133333
        k(    6) = (   0.0500000   0.2020726   0.2647971), wk =   0.0133333
        k(    7) = (   0.0500000   0.3175426   0.0529594), wk =   0.0133333
        k(    8) = (   0.0500000   0.3175426   0.1588783), wk =   0.0133333
        k(    9) = (   0.0500000   0.3175426   0.2647971), wk =   0.0133333
        k(   10) = (   0.0500000   0.4330127   0.0529594), wk =   0.0133333
        k(   11) = (   0.0500000   0.4330127   0.1588783), wk =   0.0133333
        k(   12) = (   0.0500000   0.4330127   0.2647971), wk =   0.0133333
        k(   13) = (   0.0500000   0.5484828   0.0529594), wk =   0.0133333
        k(   14) = (   0.0500000   0.5484828   0.1588783), wk =   0.0133333
        k(   15) = (   0.0500000   0.5484828   0.2647971), wk =   0.0133333
        k(   16) = (   0.0500000  -0.4907477   0.0529594), wk =   0.0133333
        k(   17) = (   0.0500000  -0.4907477   0.1588783), wk =   0.0133333
        k(   18) = (   0.0500000  -0.4907477   0.2647971), wk =   0.0133333
        k(   19) = (   0.0500000  -0.3752777   0.0529594), wk =   0.0133333
        k(   20) = (   0.0500000  -0.3752777   0.1588783), wk =   0.0133333
        k(   21) = (   0.0500000  -0.3752777   0.2647971), wk =   0.0133333
        k(   22) = (   0.0500000  -0.2598076   0.0529594), wk =   0.0133333
        k(   23) = (   0.0500000  -0.2598076   0.1588783), wk =   0.0133333
        k(   24) = (   0.0500000  -0.2598076   0.2647971), wk =   0.0133333
        k(   25) = (   0.0500000  -0.1443376   0.0529594), wk =   0.0133333
        k(   26) = (   0.0500000  -0.1443376   0.1588783), wk =   0.0133333
        k(   27) = (   0.0500000  -0.1443376   0.2647971), wk =   0.0133333
        k(   28) = (   0.0500000  -0.0288675   0.0529594), wk =   0.0066667
        k(   29) = (   0.0500000  -0.0288675   0.1588783), wk =   0.0066667
        k(   30) = (   0.0500000  -0.0288675   0.2647971), wk =   0.0066667
        k(   31) = (   0.1500000   0.2598076   0.0529594), wk =   0.0066667
        k(   32) = (   0.1500000   0.2598076   0.1588783), wk =   0.0066667
        k(   33) = (   0.1500000   0.2598076   0.2647971), wk =   0.0066667
        k(   34) = (   0.1500000   0.3752777   0.0529594), wk =   0.0133333
        k(   35) = (   0.1500000   0.3752777   0.1588783), wk =   0.0133333
        k(   36) = (   0.1500000   0.3752777   0.2647971), wk =   0.0133333
        k(   37) = (   0.1500000   0.4907477   0.0529594), wk =   0.0133333
        k(   38) = (   0.1500000   0.4907477   0.1588783), wk =   0.0133333
        k(   39) = (   0.1500000   0.4907477   0.2647971), wk =   0.0133333
        k(   40) = (   0.1500000   0.6062178   0.0529594), wk =   0.0133333
        k(   41) = (   0.1500000   0.6062178   0.1588783), wk =   0.0133333
        k(   42) = (   0.1500000   0.6062178   0.2647971), wk =   0.0133333
        k(   43) = (   0.1500000  -0.4330127   0.0529594), wk =   0.0133333
        k(   44) = (   0.1500000  -0.4330127   0.1588783), wk =   0.0133333
        k(   45) = (   0.1500000  -0.4330127   0.2647971), wk =   0.0133333
        k(   46) = (   0.1500000  -0.3175426   0.0529594), wk =   0.0133333
        k(   47) = (   0.1500000  -0.3175426   0.1588783), wk =   0.0133333
        k(   48) = (   0.1500000  -0.3175426   0.2647971), wk =   0.0133333
        k(   49) = (   0.1500000  -0.2020726   0.0529594), wk =   0.0133333
        k(   50) = (   0.1500000  -0.2020726   0.1588783), wk =   0.0133333
        k(   51) = (   0.1500000  -0.2020726   0.2647971), wk =   0.0133333
        k(   52) = (   0.1500000  -0.0866025   0.0529594), wk =   0.0066667
        k(   53) = (   0.1500000  -0.0866025   0.1588783), wk =   0.0066667
        k(   54) = (   0.1500000  -0.0866025   0.2647971), wk =   0.0066667
        k(   55) = (   0.2500000   0.4330127   0.0529594), wk =   0.0066667
        k(   56) = (   0.2500000   0.4330127   0.1588783), wk =   0.0066667
        k(   57) = (   0.2500000   0.4330127   0.2647971), wk =   0.0066667
        k(   58) = (   0.2500000   0.5484828   0.0529594), wk =   0.0133333
        k(   59) = (   0.2500000   0.5484828   0.1588783), wk =   0.0133333
        k(   60) = (   0.2500000   0.5484828   0.2647971), wk =   0.0133333
[...]
        k(   76) = (   0.3500000   0.7216878   0.0529594), wk =   0.0133333
        k(   77) = (   0.3500000   0.7216878   0.1588783), wk =   0.0133333
        k(   78) = (   0.3500000   0.7216878   0.2647971), wk =   0.0133333
        k(   79) = (   0.3500000  -0.3175426   0.0529594), wk =   0.0133333
        k(   80) = (   0.3500000  -0.3175426   0.1588783), wk =   0.0133333
        k(   81) = (   0.3500000  -0.3175426   0.2647971), wk =   0.0133333
        k(   82) = (   0.3500000  -0.2020726   0.0529594), wk =   0.0066667
        k(   83) = (   0.3500000  -0.2020726   0.1588783), wk =   0.0066667
        k(   84) = (   0.3500000  -0.2020726   0.2647971), wk =   0.0066667
        k(   85) = (   0.4500000   0.7794229   0.0529594), wk =   0.0066667
        k(   86) = (   0.4500000   0.7794229   0.1588783), wk =   0.0066667
        k(   87) = (   0.4500000   0.7794229   0.2647971), wk =   0.0066667
        k(   88) = (   0.4500000  -0.2598076   0.0529594), wk =   0.0066667
        k(   89) = (   0.4500000  -0.2598076   0.1588783), wk =   0.0066667
        k(   90) = (   0.4500000  -0.2598076   0.2647971), wk =   0.0066667

     Initial potential from superposition of free atoms

     starting charge   21.96168, renormalised to   22.00000

     negative rho (up, down):  0.000E+00 1.543E-04
     Starting wfcs are   26 randomized atomic wfcs
     Checking if some PAW data can be deallocated...

     Self-consistent Calculation

     iteration #  1     ecut=    36.00 Ry     beta= 0.70
     Davidson diagonalization with overlap
     ethr =  1.00E-02,  avg # of iterations =  1.9

     total energy              =   -1174.22185672 Ry
     Harris-Foulkes estimate   =   -1172.40274414 Ry
     estimated scf accuracy    <       1.23433531 Ry

     total magnetization       =     4.54 Bohr mag/cell
     absolute magnetization    =     4.54 Bohr mag/cell

[...]

     Magnetic moment per site:
     atom:    1    charge:    9.4969    magn:    0.0410    constr:    0.0000
     atom:    2    charge:    9.4969    magn:    0.0410    constr:    0.0000

     End of self-consistent calculation

     Number of k-points >= 100: set verbosity='high' to print the bands.

     the Fermi energy is    10.3155 ev

!    total energy              =   -1174.59729902 Ry
     Harris-Foulkes estimate   =   -1174.59729481 Ry
     estimated scf accuracy    <       0.00000046 Ry

     total all-electron energy =    -48629.056573 Ry

     The total energy is the sum of the following terms:

     one-electron contribution =     -30.09026069 Ry
     hartree contribution      =      23.44433896 Ry
     xc contribution           =    -122.94974154 Ry
     ewald contribution        =    -116.95948936 Ry
     one-center paw contrib.   =    -928.04098186 Ry
     smearing contrib. (-TS)   =      -0.00116452 Ry

[...]

     convergence has been achieved in   9 iterations

     Forces acting on atoms (cartesian axes, Ry/au):

     atom    1 type  1   force =     0.00000000    0.00000000    0.00000000
     atom    2 type  1   force =     0.00000000   -0.00000000    0.00000000

     Total force =     0.000000     Total SCF correction =     0.000000

     Computing stress (Cartesian axis) and pressure

          total   stress  (Ry/bohr**3)                   (kbar)     P=    1.39
   0.00001721  -0.00000000  -0.00000000          2.53     -0.00     -0.00
  -0.00000000   0.00001721   0.00000000         -0.00      2.53      0.00
   0.00000000   0.00000000  -0.00000616          0.00      0.00     -0.91

     BFGS Geometry Optimization

     number of scf cycles    =   1
     number of bfgs steps    =   0

     enthalpy new            =   -1174.5972990164 Ry

     new trust radius        =       0.0017772345 bohr
     new conv_thr            =       0.0000010000 Ry

     new unit-cell volume =    426.85581 a.u.^3 (    63.25350 Ang^3 )
     density =      8.53194 g/cm^3

CELL_PARAMETERS (alat=  6.78978600)
   1.000430257  -0.000000000   0.000000000
  -0.500215128   0.866398017   0.000000000
  -0.000000000   0.000000000   1.573289599

ATOMIC_POSITIONS (crystal)
Dy       0.666666667   0.333333333   0.750000000
Dy       0.333333333   0.666666667   0.250000000

     Writing output data file pw.save/
     NEW-OLD atomic charge density approx. for the potential
     extrapolated charge   22.01551, renormalised to   22.00000

[...]

     Threshold (ethr) on eigenvalues was too large:
     Diagonalizing with lowered threshold

     Davidson diagonalization with overlap
     ethr =  2.42E-08,  avg # of iterations =  1.2

[...]

     enthalpy old            =   -1174.5972990164 Ry
     enthalpy new            =   -1174.5973187132 Ry

     CASE: enthalpy_new < enthalpy_old

     WARNING: bfgs curvature condition failed, Theta= 0.843
     new trust radius        =       0.0026656465 bohr
     new conv_thr            =       0.0000000100 Ry

[...]

     number of scf cycles    =   8
     number of bfgs steps    =   7

     enthalpy old            =   -1174.5973643486 Ry
     enthalpy new            =   -1174.5973654188 Ry

     CASE: enthalpy_new < enthalpy_old

     new trust radius        =       0.0027989421 bohr
     new conv_thr            =       0.0000000100 Ry

     new unit-cell volume =    428.37861 a.u.^3 (    63.47916 Ang^3 )
     density =      8.50161 g/cm^3

[...]

ATOMIC_POSITIONS (crystal)
Dy       0.666666667   0.333333333   0.750000000
Dy       0.333333333   0.666666667   0.250000000

     Writing output data file pw.save/
     NEW-OLD atomic charge density approx. for the potential
     extrapolated charge   21.97809, renormalised to   22.00000

[...]

     Threshold (ethr) on eigenvalues was too large:
     Diagonalizing with lowered threshold

     Davidson diagonalization with overlap
     ethr =  5.00E-08,  avg # of iterations =  1.0

[...]

     bfgs converged in   9 scf cycles and   8 bfgs steps
     (criteria: energy <  1.0E-04 Ry, force <  1.0E-03Ry/Bohr, cell <  5.0E-01kbar)

     End of BFGS Geometry Optimization

     Final enthalpy =   -1174.5973662406 Ry
Begin final coordinates
     new unit-cell volume =    428.37861 a.u.^3 (    63.47916 Ang^3 )
     density =      8.50161 g/cm^3

CELL_PARAMETERS (alat=  6.78978600)
   1.004260064  -0.000000000  -0.000000000
  -0.502130032   0.869714727  -0.000000000
  -0.000000000   0.000000000   1.566882757

ATOMIC_POSITIONS (crystal)
Dy       0.666666667   0.333333333   0.750000000
Dy       0.333333333   0.666666667   0.250000000
End final coordinates

     Writing output data file pw.save/

     A final scf calculation at the relaxed structure.
     The G-vectors are recalculated for the final unit cell
     Results may differ from those at the preceding step.

     bravais-lattice index     =            0
     lattice parameter (alat)  =       6.7898  a.u.
     unit-cell volume          =     428.3786 (a.u.)^3
     number of atoms/cell      =            2
     number of atomic types    =            1
     number of electrons       =        22.00
     number of Kohn-Sham states=           15
     kinetic-energy cutoff     =      36.0000  Ry
     charge density cutoff     =     265.0000  Ry
     convergence threshold     =      1.0E-08
     mixing beta               =       0.7000
     number of iterations used =            8  plain     mixing
     Exchange-correlation      = SLA PW PBX PBC ( 1  4  3  4 0 0)

     celldm(1)=   6.789786  celldm(2)=   0.000000  celldm(3)=   0.000000
     celldm(4)=   0.000000  celldm(5)=   0.000000  celldm(6)=   0.000000

     crystal axes: (cart. coord. in units of alat)
               a(1) = (   1.004260  -0.000000  -0.000000 )
               a(2) = (  -0.502130   0.869715  -0.000000 )
               a(3) = (  -0.000000   0.000000   1.566883 )

     reciprocal axes: (cart. coord. in units 2 pi/alat)
               b(1) = (  0.995758  0.574901 -0.000000 )
               b(2) = (  0.000000  1.149802 -0.000000 )
               b(3) = (  0.000000  0.000000  0.638210 )

     PseudoPot. # 1 for Dy read from file:
     ./potentials/Dy.pbe-spdn-kjpaw_psl.1.0.0.UPF
     MD5 check sum: dcf39381811a57a3d834ca4a7f58332c
     Pseudo is Projector augmented-wave + core cor, Zval = 11.0
     Generated using "atomic" code by A. Dal Corso v.6.2.2
     Shape of augmentation charge: PSQ
     Using radial grid of 1265 points,  6 beta functions with:
                l(1) =   0
                l(2) =   0
                l(3) =   1
                l(4) =   1
                l(5) =   2
                l(6) =   2
     Q(r) pseudized with 0 coefficients

     atomic species   valence    mass     pseudopotential
        Dy            11.00   162.50000     Dy( 1.00)

     Starting magnetic structure
     atomic species   magnetization
        Dy          -0.000

     24 Sym. Ops., with inversion, found (12 have fractional translation)

   Cartesian axes

     site n.     atom                  positions (alat units)
         1           Dy  tau(   1) = (   0.5021300   0.2899049   1.1751621  )
         2           Dy  tau(   2) = (  -0.0000000   0.5798098   0.3917207  )

     number of k points=    90  Methfessel-Paxton smearing, width (Ry)=  0.0200
                       cart. coord. in units 2pi/alat
        k(    1) = (   0.0497879   0.0862352   0.0531842), wk =   0.0066667
        k(    2) = (   0.0497879   0.0862352   0.1595525), wk =   0.0066667
        k(    3) = (   0.0497879   0.0862352   0.2659208), wk =   0.0066667
        k(    4) = (   0.0497879   0.2012154   0.0531842), wk =   0.0133333
        k(    5) = (   0.0497879   0.2012154   0.1595525), wk =   0.0133333
        k(    6) = (   0.0497879   0.2012154   0.2659208), wk =   0.0133333
        k(    7) = (   0.0497879   0.3161956   0.0531842), wk =   0.0133333
        k(    8) = (   0.0497879   0.3161956   0.1595525), wk =   0.0133333
        k(    9) = (   0.0497879   0.3161956   0.2659208), wk =   0.0133333
        k(   10) = (   0.0497879   0.4311759   0.0531842), wk =   0.0133333
        k(   11) = (   0.0497879   0.4311759   0.1595525), wk =   0.0133333
        k(   12) = (   0.0497879   0.4311759   0.2659208), wk =   0.0133333
        k(   13) = (   0.0497879   0.5461561   0.0531842), wk =   0.0133333
        k(   14) = (   0.0497879   0.5461561   0.1595525), wk =   0.0133333
        k(   15) = (   0.0497879   0.5461561   0.2659208), wk =   0.0133333
        k(   16) = (   0.0497879  -0.4886660   0.0531842), wk =   0.0133333
        k(   17) = (   0.0497879  -0.4886660   0.1595525), wk =   0.0133333
        k(   18) = (   0.0497879  -0.4886660   0.2659208), wk =   0.0133333
        k(   19) = (   0.0497879  -0.3736857   0.0531842), wk =   0.0133333
        k(   20) = (   0.0497879  -0.3736857   0.1595525), wk =   0.0133333
        k(   21) = (   0.0497879  -0.3736857   0.2659208), wk =   0.0133333
        k(   22) = (   0.0497879  -0.2587055   0.0531842), wk =   0.0133333
        k(   23) = (   0.0497879  -0.2587055   0.1595525), wk =   0.0133333
        k(   24) = (   0.0497879  -0.2587055   0.2659208), wk =   0.0133333
        k(   25) = (   0.0497879  -0.1437253   0.0531842), wk =   0.0133333
        k(   26) = (   0.0497879  -0.1437253   0.1595525), wk =   0.0133333
        k(   27) = (   0.0497879  -0.1437253   0.2659208), wk =   0.0133333
        k(   28) = (   0.0497879  -0.0287451   0.0531842), wk =   0.0066667
        k(   29) = (   0.0497879  -0.0287451   0.1595525), wk =   0.0066667
        k(   30) = (   0.0497879  -0.0287451   0.2659208), wk =   0.0066667
        k(   31) = (   0.1493637   0.2587055   0.0531842), wk =   0.0066667
        k(   32) = (   0.1493637   0.2587055   0.1595525), wk =   0.0066667
        k(   33) = (   0.1493637   0.2587055   0.2659208), wk =   0.0066667
        k(   34) = (   0.1493637   0.3736857   0.0531842), wk =   0.0133333
        k(   35) = (   0.1493637   0.3736857   0.1595525), wk =   0.0133333
        k(   36) = (   0.1493637   0.3736857   0.2659208), wk =   0.0133333
        k(   37) = (   0.1493637   0.4886660   0.0531842), wk =   0.0133333
        k(   38) = (   0.1493637   0.4886660   0.1595525), wk =   0.0133333
        k(   39) = (   0.1493637   0.4886660   0.2659208), wk =   0.0133333
        k(   40) = (   0.1493637   0.6036462   0.0531842), wk =   0.0133333
        k(   41) = (   0.1493637   0.6036462   0.1595525), wk =   0.0133333
        k(   42) = (   0.1493637   0.6036462   0.2659208), wk =   0.0133333
        k(   43) = (   0.1493637  -0.4311759   0.0531842), wk =   0.0133333
        k(   44) = (   0.1493637  -0.4311759   0.1595525), wk =   0.0133333
        k(   45) = (   0.1493637  -0.4311759   0.2659208), wk =   0.0133333
        k(   46) = (   0.1493637  -0.3161956   0.0531842), wk =   0.0133333
        k(   47) = (   0.1493637  -0.3161956   0.1595525), wk =   0.0133333
        k(   48) = (   0.1493637  -0.3161956   0.2659208), wk =   0.0133333
        k(   49) = (   0.1493637  -0.2012154   0.0531842), wk =   0.0133333
        k(   50) = (   0.1493637  -0.2012154   0.1595525), wk =   0.0133333
        k(   51) = (   0.1493637  -0.2012154   0.2659208), wk =   0.0133333
        k(   52) = (   0.1493637  -0.0862352   0.0531842), wk =   0.0066667
        k(   53) = (   0.1493637  -0.0862352   0.1595525), wk =   0.0066667
        k(   54) = (   0.1493637  -0.0862352   0.2659208), wk =   0.0066667
        k(   55) = (   0.2489395   0.4311759   0.0531842), wk =   0.0066667
        k(   56) = (   0.2489395   0.4311759   0.1595525), wk =   0.0066667
        k(   57) = (   0.2489395   0.4311759   0.2659208), wk =   0.0066667
        k(   58) = (   0.2489395   0.5461561   0.0531842), wk =   0.0133333
        k(   59) = (   0.2489395   0.5461561   0.1595525), wk =   0.0133333
        k(   60) = (   0.2489395   0.5461561   0.2659208), wk =   0.0133333
[...]
        k(   76) = (   0.3485153   0.7186264   0.0531842), wk =   0.0133333
        k(   77) = (   0.3485153   0.7186264   0.1595525), wk =   0.0133333
        k(   78) = (   0.3485153   0.7186264   0.2659208), wk =   0.0133333
        k(   79) = (   0.3485153  -0.3161956   0.0531842), wk =   0.0133333
        k(   80) = (   0.3485153  -0.3161956   0.1595525), wk =   0.0133333
        k(   81) = (   0.3485153  -0.3161956   0.2659208), wk =   0.0133333
        k(   82) = (   0.3485153  -0.2012154   0.0531842), wk =   0.0066667
        k(   83) = (   0.3485153  -0.2012154   0.1595525), wk =   0.0066667
        k(   84) = (   0.3485153  -0.2012154   0.2659208), wk =   0.0066667
        k(   85) = (   0.4480911   0.7761166   0.0531842), wk =   0.0066667
        k(   86) = (   0.4480911   0.7761166   0.1595525), wk =   0.0066667
        k(   87) = (   0.4480911   0.7761166   0.2659208), wk =   0.0066667
        k(   88) = (   0.4480911  -0.2587055   0.0531842), wk =   0.0066667
        k(   89) = (   0.4480911  -0.2587055   0.1595525), wk =   0.0066667
        k(   90) = (   0.4480911  -0.2587055   0.2659208), wk =   0.0066667

     Initial potential from superposition of free atoms

     starting charge   21.96168, renormalised to   22.00000
     Starting wfcs are   26 randomized atomic wfcs
     Checking if some PAW data can be deallocated...

     Self-consistent Calculation

[...]

     total energy              =   -1174.59737390 Ry
     Harris-Foulkes estimate   =   -1174.59737391 Ry
     estimated scf accuracy    <       0.00000002 Ry

[...]

     iteration #  6     ecut=    36.00 Ry     beta= 0.70
     Davidson diagonalization with overlap
     ethr =  8.36E-11,  avg # of iterations =  2.2

     Magnetic moment per site:
     atom:    1    charge:    9.4909    magn:   -0.0000    constr:    0.0000
     atom:    2    charge:    9.4909    magn:   -0.0000    constr:    0.0000

     End of self-consistent calculation

     Number of k-points >= 100: set verbosity='high' to print the bands.

     the Fermi energy is    10.2592 ev

!    total energy              =   -1174.59737390 Ry
     Harris-Foulkes estimate   =   -1174.59737390 Ry
     estimated scf accuracy    <          8.4E-10 Ry

     total all-electron energy =    -48629.056648 Ry

     The total energy is the sum of the following terms:

     one-electron contribution =     -30.35159133 Ry
     hartree contribution      =      23.52229431 Ry
     xc contribution           =    -122.94385036 Ry
     ewald contribution        =    -116.78212712 Ry
     one-center paw contrib.   =    -928.04090605 Ry
     smearing contrib. (-TS)   =      -0.00119337 Ry

     total magnetization       =    -0.00 Bohr mag/cell
     absolute magnetization    =     0.00 Bohr mag/cell

     convergence has been achieved in   6 iterations

     Forces acting on atoms (cartesian axes, Ry/au):

     atom    1 type  1   force =     0.00000000    0.00000000   -0.00000000
     atom    2 type  1   force =    -0.00000000   -0.00000000    0.00000000

     Total force =     0.000000     Total SCF correction =     0.000000

     Computing stress (Cartesian axis) and pressure

          total   stress  (Ry/bohr**3)                   (kbar)     P=   -0.08
  -0.00000096   0.00000000  -0.00000000         -0.14      0.00     -0.00
  -0.00000000  -0.00000096   0.00000000         -0.00     -0.14      0.00
  -0.00000000   0.00000000   0.00000028         -0.00      0.00      0.04

     Writing output data file pw.save/

     General routines

     Parallel routines

   This run was terminated on:  19:37:51   6Nov2020

   JOB DONE.