     Program PWSCF v.6.4.1 starts on  6Nov2020 at 23:41:24

     R & G space division:  proc/nbgrp/npool/nimage =       2
     Waiting for input...
     Reading input from standard input

     Current dimensions of program PWSCF are:
     Max number of different atomic species (ntypx) = 10
     Max number of k-points (npk) =  40000
     Max angular momentum in pseudopotentials (lmaxx) =  3
               file Er.pbe-spdn-kjpaw_psl.1.0.0.UPF: wavefunction(s)  6S 5D renormalized

     Subspace diagonalization in iterative solution of the eigenvalue problem:
     a serial algorithm will be used

     Message from routine setup:
     DEPRECATED: symmetry with ibrav=0, use correct ibrav instead

     bravais-lattice index     =            0
     lattice parameter (alat)  =       6.7252  a.u.
     unit-cell volume          =     413.5654 (a.u.)^3
     number of atoms/cell      =            2
     number of atomic types    =            1
     number of electrons       =        22.00
     number of Kohn-Sham states=           15
     kinetic-energy cutoff     =      37.0000  Ry
     charge density cutoff     =     265.0000  Ry
     convergence threshold     =      1.0E-06
     mixing beta               =       0.7000
     number of iterations used =            8  plain     mixing
     Exchange-correlation      = SLA PW PBX PBC ( 1  4  3  4 0 0)
     nstep                     =           50

     celldm(1)=   6.725157  celldm(2)=   0.000000  celldm(3)=   0.000000
     celldm(4)=   0.000000  celldm(5)=   0.000000  celldm(6)=   0.000000

     crystal axes: (cart. coord. in units of alat)
               a(1) = (   1.000000   0.000000   0.000000 )
               a(2) = (  -0.500000   0.866025   0.000000 )
               a(3) = (   0.000000   0.000000   1.570024 )

     reciprocal axes: (cart. coord. in units 2 pi/alat)
               b(1) = (  1.000000  0.577350 -0.000000 )
               b(2) = (  0.000000  1.154701  0.000000 )
               b(3) = (  0.000000 -0.000000  0.636933 )

     PseudoPot. # 1 for Er read from file:
     ./potentials/Er.pbe-spdn-kjpaw_psl.1.0.0.UPF
     MD5 check sum: b1e5c214e86e952f1c151312b12cf440
     Pseudo is Projector augmented-wave + core cor, Zval = 11.0
     Generated using "atomic" code by A. Dal Corso v.6.2.2
     Shape of augmentation charge: PSQ
     Using radial grid of 1267 points,  6 beta functions with:
                l(1) =   0
                l(2) =   0
                l(3) =   1
                l(4) =   1
                l(5) =   2
                l(6) =   2
     Q(r) pseudized with 0 coefficients

     atomic species   valence    mass     pseudopotential
        Er            11.00   167.25900     Er( 1.00)

     Starting magnetic structure
     atomic species   magnetization
        Er           1.000

     24 Sym. Ops., with inversion, found (12 have fractional translation)

   Cartesian axes

     site n.     atom                  positions (alat units)
         1           Er  tau(   1) = (   0.5000000   0.2886751   1.1775177  )
         2           Er  tau(   2) = (  -0.0000000   0.5773503   0.3925059  )

     number of k points=    90  Methfessel-Paxton smearing, width (Ry)=  0.0200
                       cart. coord. in units 2pi/alat
        k(    1) = (   0.0500000   0.0866025   0.0530778), wk =   0.0066667
        k(    2) = (   0.0500000   0.0866025   0.1592333), wk =   0.0066667
        k(    3) = (   0.0500000   0.0866025   0.2653888), wk =   0.0066667
        k(    4) = (   0.0500000   0.2020726   0.0530778), wk =   0.0133333
        k(    5) = (   0.0500000   0.2020726   0.1592333), wk =   0.0133333
        k(    6) = (   0.0500000   0.2020726   0.2653888), wk =   0.0133333
        k(    7) = (   0.0500000   0.3175426   0.0530778), wk =   0.0133333
        k(    8) = (   0.0500000   0.3175426   0.1592333), wk =   0.0133333
        k(    9) = (   0.0500000   0.3175426   0.2653888), wk =   0.0133333
        k(   10) = (   0.0500000   0.4330127   0.0530778), wk =   0.0133333
        k(   11) = (   0.0500000   0.4330127   0.1592333), wk =   0.0133333
        k(   12) = (   0.0500000   0.4330127   0.2653888), wk =   0.0133333
        k(   13) = (   0.0500000   0.5484828   0.0530778), wk =   0.0133333
        k(   14) = (   0.0500000   0.5484828   0.1592333), wk =   0.0133333
        k(   15) = (   0.0500000   0.5484828   0.2653888), wk =   0.0133333
        k(   16) = (   0.0500000  -0.4907477   0.0530778), wk =   0.0133333
        k(   17) = (   0.0500000  -0.4907477   0.1592333), wk =   0.0133333
        k(   18) = (   0.0500000  -0.4907477   0.2653888), wk =   0.0133333
        k(   19) = (   0.0500000  -0.3752777   0.0530778), wk =   0.0133333
        k(   20) = (   0.0500000  -0.3752777   0.1592333), wk =   0.0133333
        k(   21) = (   0.0500000  -0.3752777   0.2653888), wk =   0.0133333
        k(   22) = (   0.0500000  -0.2598076   0.0530778), wk =   0.0133333
        k(   23) = (   0.0500000  -0.2598076   0.1592333), wk =   0.0133333
        k(   24) = (   0.0500000  -0.2598076   0.2653888), wk =   0.0133333
        k(   25) = (   0.0500000  -0.1443376   0.0530778), wk =   0.0133333
        k(   26) = (   0.0500000  -0.1443376   0.1592333), wk =   0.0133333
        k(   27) = (   0.0500000  -0.1443376   0.2653888), wk =   0.0133333
        k(   28) = (   0.0500000  -0.0288675   0.0530778), wk =   0.0066667
        k(   29) = (   0.0500000  -0.0288675   0.1592333), wk =   0.0066667
        k(   30) = (   0.0500000  -0.0288675   0.2653888), wk =   0.0066667
        k(   31) = (   0.1500000   0.2598076   0.0530778), wk =   0.0066667
        k(   32) = (   0.1500000   0.2598076   0.1592333), wk =   0.0066667
        k(   33) = (   0.1500000   0.2598076   0.2653888), wk =   0.0066667
        k(   34) = (   0.1500000   0.3752777   0.0530778), wk =   0.0133333
        k(   35) = (   0.1500000   0.3752777   0.1592333), wk =   0.0133333
        k(   36) = (   0.1500000   0.3752777   0.2653888), wk =   0.0133333
        k(   37) = (   0.1500000   0.4907477   0.0530778), wk =   0.0133333
        k(   38) = (   0.1500000   0.4907477   0.1592333), wk =   0.0133333
        k(   39) = (   0.1500000   0.4907477   0.2653888), wk =   0.0133333
        k(   40) = (   0.1500000   0.6062178   0.0530778), wk =   0.0133333
        k(   41) = (   0.1500000   0.6062178   0.1592333), wk =   0.0133333
        k(   42) = (   0.1500000   0.6062178   0.2653888), wk =   0.0133333
        k(   43) = (   0.1500000  -0.4330127   0.0530778), wk =   0.0133333
        k(   44) = (   0.1500000  -0.4330127   0.1592333), wk =   0.0133333
        k(   45) = (   0.1500000  -0.4330127   0.2653888), wk =   0.0133333
        k(   46) = (   0.1500000  -0.3175426   0.0530778), wk =   0.0133333
        k(   47) = (   0.1500000  -0.3175426   0.1592333), wk =   0.0133333
        k(   48) = (   0.1500000  -0.3175426   0.2653888), wk =   0.0133333
        k(   49) = (   0.1500000  -0.2020726   0.0530778), wk =   0.0133333
        k(   50) = (   0.1500000  -0.2020726   0.1592333), wk =   0.0133333
        k(   51) = (   0.1500000  -0.2020726   0.2653888), wk =   0.0133333
        k(   52) = (   0.1500000  -0.0866025   0.0530778), wk =   0.0066667
        k(   53) = (   0.1500000  -0.0866025   0.1592333), wk =   0.0066667
        k(   54) = (   0.1500000  -0.0866025   0.2653888), wk =   0.0066667
        k(   55) = (   0.2500000   0.4330127   0.0530778), wk =   0.0066667
        k(   56) = (   0.2500000   0.4330127   0.1592333), wk =   0.0066667
        k(   57) = (   0.2500000   0.4330127   0.2653888), wk =   0.0066667
        k(   58) = (   0.2500000   0.5484828   0.0530778), wk =   0.0133333
        k(   59) = (   0.2500000   0.5484828   0.1592333), wk =   0.0133333
        k(   60) = (   0.2500000   0.5484828   0.2653888), wk =   0.0133333
[...]
        k(   76) = (   0.3500000   0.7216878   0.0530778), wk =   0.0133333
        k(   77) = (   0.3500000   0.7216878   0.1592333), wk =   0.0133333
        k(   78) = (   0.3500000   0.7216878   0.2653888), wk =   0.0133333
        k(   79) = (   0.3500000  -0.3175426   0.0530778), wk =   0.0133333
        k(   80) = (   0.3500000  -0.3175426   0.1592333), wk =   0.0133333
        k(   81) = (   0.3500000  -0.3175426   0.2653888), wk =   0.0133333
        k(   82) = (   0.3500000  -0.2020726   0.0530778), wk =   0.0066667
        k(   83) = (   0.3500000  -0.2020726   0.1592333), wk =   0.0066667
        k(   84) = (   0.3500000  -0.2020726   0.2653888), wk =   0.0066667
        k(   85) = (   0.4500000   0.7794229   0.0530778), wk =   0.0066667
        k(   86) = (   0.4500000   0.7794229   0.1592333), wk =   0.0066667
        k(   87) = (   0.4500000   0.7794229   0.2653888), wk =   0.0066667
        k(   88) = (   0.4500000  -0.2598076   0.0530778), wk =   0.0066667
        k(   89) = (   0.4500000  -0.2598076   0.1592333), wk =   0.0066667
        k(   90) = (   0.4500000  -0.2598076   0.2653888), wk =   0.0066667

     Initial potential from superposition of free atoms

     starting charge   21.96291, renormalised to   22.00000

     negative rho (up, down):  0.000E+00 1.543E-04
     Starting wfcs are   26 randomized atomic wfcs
     Checking if some PAW data can be deallocated...

     Self-consistent Calculation

     iteration #  1     ecut=    37.00 Ry     beta= 0.70
     Davidson diagonalization with overlap
     ethr =  1.00E-02,  avg # of iterations =  1.9

     total energy              =   -1236.78372905 Ry
     Harris-Foulkes estimate   =   -1234.91747176 Ry
     estimated scf accuracy    <       1.38376971 Ry

     total magnetization       =     4.22 Bohr mag/cell
     absolute magnetization    =     4.22 Bohr mag/cell

[...]

     Magnetic moment per site:
     atom:    1    charge:    9.4966    magn:    0.0641    constr:    0.0000
     atom:    2    charge:    9.4966    magn:    0.0641    constr:    0.0000

     End of self-consistent calculation

     Number of k-points >= 100: set verbosity='high' to print the bands.

     the Fermi energy is    10.2538 ev

!    total energy              =   -1237.14812988 Ry
     Harris-Foulkes estimate   =   -1237.14812097 Ry
     estimated scf accuracy    <       0.00000072 Ry

     total all-electron energy =    -52345.445248 Ry

     The total energy is the sum of the following terms:

     one-electron contribution =     -34.85924011 Ry
     hartree contribution      =      25.17933230 Ry
     xc contribution           =    -114.72029596 Ry
     ewald contribution        =    -118.16859865 Ry
     one-center paw contrib.   =    -994.57839547 Ry
     smearing contrib. (-TS)   =      -0.00093198 Ry

[...]

     convergence has been achieved in   9 iterations

     Forces acting on atoms (cartesian axes, Ry/au):

     atom    1 type  1   force =     0.00000000    0.00000000    0.00000000
     atom    2 type  1   force =     0.00000000   -0.00000000    0.00000000

     Total force =     0.000000     Total SCF correction =     0.000000

     Computing stress (Cartesian axis) and pressure

          total   stress  (Ry/bohr**3)                   (kbar)     P=    0.94
   0.00001845  -0.00000000   0.00000000          2.71     -0.00      0.00
  -0.00000000   0.00001845   0.00000000         -0.00      2.71      0.00
  -0.00000000   0.00000000  -0.00001775         -0.00      0.00     -2.61

     BFGS Geometry Optimization

     number of scf cycles    =   1
     number of bfgs steps    =   0

     enthalpy new            =   -1237.1481298763 Ry

     new trust radius        =       0.0018765247 bohr
     new conv_thr            =       0.0000010000 Ry

     new unit-cell volume =    413.76336 a.u.^3 (    61.31340 Ang^3 )
     density =      9.05969 g/cm^3

CELL_PARAMETERS (alat=  6.72515736)
   1.000461373  -0.000000000  -0.000000000
  -0.500230687   0.866424965   0.000000000
   0.000000000   0.000000000   1.569326821

ATOMIC_POSITIONS (crystal)
Er       0.666666667   0.333333333   0.750000000
Er       0.333333333   0.666666667   0.250000000

     Writing output data file pw.save/
     NEW-OLD atomic charge density approx. for the potential
     extrapolated charge   22.01051, renormalised to   22.00000

[...]

     Threshold (ethr) on eigenvalues was too large:
     Diagonalizing with lowered threshold

     Davidson diagonalization with overlap
     ethr =  1.29E-08,  avg # of iterations =  1.9

[...]

     enthalpy old            =   -1237.1481298763 Ry
     enthalpy new            =   -1237.1481753262 Ry

     CASE: enthalpy_new < enthalpy_old

     WARNING: bfgs curvature condition failed, Theta= 0.888
     new trust radius        =       0.0028141624 bohr
     new conv_thr            =       0.0000000100 Ry

[...]

     number of scf cycles    =   6
     number of bfgs steps    =   5

     enthalpy old            =   -1237.1482492117 Ry
     enthalpy new            =   -1237.1482557362 Ry

     CASE: enthalpy_new < enthalpy_old

     new trust radius        =       0.0005252837 bohr
     new conv_thr            =       0.0000000100 Ry

     new unit-cell volume =    414.98128 a.u.^3 (    61.49388 Ang^3 )
     density =      9.03310 g/cm^3

[...]

ATOMIC_POSITIONS (crystal)
Er       0.666666667   0.333333333   0.750000000
Er       0.333333333   0.666666667   0.250000000

     Writing output data file pw.save/
     NEW-OLD atomic charge density approx. for the potential
     extrapolated charge   21.99914, renormalised to   22.00000

[...]

     Threshold (ethr) on eigenvalues was too large:
     Diagonalizing with lowered threshold

     Davidson diagonalization with overlap
     ethr =  2.62E-11,  avg # of iterations =  3.7

[...]

     bfgs converged in   7 scf cycles and   6 bfgs steps
     (criteria: energy <  1.0E-04 Ry, force <  1.0E-03Ry/Bohr, cell <  5.0E-01kbar)

     End of BFGS Geometry Optimization

     Final enthalpy =   -1237.1482558494 Ry
Begin final coordinates
     new unit-cell volume =    414.98128 a.u.^3 (    61.49388 Ang^3 )
     density =      9.03310 g/cm^3

CELL_PARAMETERS (alat=  6.72515736)
   1.004535327  -0.000000000  -0.000000000
  -0.502267663   0.869953112   0.000000000
  -0.000000000  -0.000000000   1.561205577

ATOMIC_POSITIONS (crystal)
Er       0.666666667   0.333333333   0.750000000
Er       0.333333333   0.666666667   0.250000000
End final coordinates

     Writing output data file pw.save/

     A final scf calculation at the relaxed structure.
     The G-vectors are recalculated for the final unit cell
     Results may differ from those at the preceding step.

     bravais-lattice index     =            0
     lattice parameter (alat)  =       6.7252  a.u.
     unit-cell volume          =     414.9813 (a.u.)^3
     number of atoms/cell      =            2
     number of atomic types    =            1
     number of electrons       =        22.00
     number of Kohn-Sham states=           15
     kinetic-energy cutoff     =      37.0000  Ry
     charge density cutoff     =     265.0000  Ry
     convergence threshold     =      1.0E-08
     mixing beta               =       0.7000
     number of iterations used =            8  plain     mixing
     Exchange-correlation      = SLA PW PBX PBC ( 1  4  3  4 0 0)

     celldm(1)=   6.725157  celldm(2)=   0.000000  celldm(3)=   0.000000
     celldm(4)=   0.000000  celldm(5)=   0.000000  celldm(6)=   0.000000

     crystal axes: (cart. coord. in units of alat)
               a(1) = (   1.004535  -0.000000  -0.000000 )
               a(2) = (  -0.502268   0.869953   0.000000 )
               a(3) = (  -0.000000  -0.000000   1.561206 )

     reciprocal axes: (cart. coord. in units 2 pi/alat)
               b(1) = (  0.995485  0.574744  0.000000 )
               b(2) = (  0.000000  1.149487  0.000000 )
               b(3) = (  0.000000 -0.000000  0.640531 )

     PseudoPot. # 1 for Er read from file:
     ./potentials/Er.pbe-spdn-kjpaw_psl.1.0.0.UPF
     MD5 check sum: b1e5c214e86e952f1c151312b12cf440
     Pseudo is Projector augmented-wave + core cor, Zval = 11.0
     Generated using "atomic" code by A. Dal Corso v.6.2.2
     Shape of augmentation charge: PSQ
     Using radial grid of 1267 points,  6 beta functions with:
                l(1) =   0
                l(2) =   0
                l(3) =   1
                l(4) =   1
                l(5) =   2
                l(6) =   2
     Q(r) pseudized with 0 coefficients

     atomic species   valence    mass     pseudopotential
        Er            11.00   167.25900     Er( 1.00)

     Starting magnetic structure
     atomic species   magnetization
        Er           0.000

     24 Sym. Ops., with inversion, found (12 have fractional translation)

   Cartesian axes

     site n.     atom                  positions (alat units)
         1           Er  tau(   1) = (   0.5022677   0.2899844   1.1709042  )
         2           Er  tau(   2) = (  -0.0000000   0.5799687   0.3903014  )

     number of k points=    90  Methfessel-Paxton smearing, width (Ry)=  0.0200
                       cart. coord. in units 2pi/alat
        k(    1) = (   0.0497743   0.0862115   0.0533776), wk =   0.0066667
        k(    2) = (   0.0497743   0.0862115   0.1601327), wk =   0.0066667
        k(    3) = (   0.0497743   0.0862115   0.2668878), wk =   0.0066667
        k(    4) = (   0.0497743   0.2011603   0.0533776), wk =   0.0133333
        k(    5) = (   0.0497743   0.2011603   0.1601327), wk =   0.0133333
        k(    6) = (   0.0497743   0.2011603   0.2668878), wk =   0.0133333
        k(    7) = (   0.0497743   0.3161090   0.0533776), wk =   0.0133333
        k(    8) = (   0.0497743   0.3161090   0.1601327), wk =   0.0133333
        k(    9) = (   0.0497743   0.3161090   0.2668878), wk =   0.0133333
        k(   10) = (   0.0497743   0.4310577   0.0533776), wk =   0.0133333
        k(   11) = (   0.0497743   0.4310577   0.1601327), wk =   0.0133333
        k(   12) = (   0.0497743   0.4310577   0.2668878), wk =   0.0133333
        k(   13) = (   0.0497743   0.5460064   0.0533776), wk =   0.0133333
        k(   14) = (   0.0497743   0.5460064   0.1601327), wk =   0.0133333
        k(   15) = (   0.0497743   0.5460064   0.2668878), wk =   0.0133333
        k(   16) = (   0.0497743  -0.4885321   0.0533776), wk =   0.0133333
        k(   17) = (   0.0497743  -0.4885321   0.1601327), wk =   0.0133333
        k(   18) = (   0.0497743  -0.4885321   0.2668878), wk =   0.0133333
        k(   19) = (   0.0497743  -0.3735834   0.0533776), wk =   0.0133333
        k(   20) = (   0.0497743  -0.3735834   0.1601327), wk =   0.0133333
        k(   21) = (   0.0497743  -0.3735834   0.2668878), wk =   0.0133333
        k(   22) = (   0.0497743  -0.2586346   0.0533776), wk =   0.0133333
        k(   23) = (   0.0497743  -0.2586346   0.1601327), wk =   0.0133333
        k(   24) = (   0.0497743  -0.2586346   0.2668878), wk =   0.0133333
        k(   25) = (   0.0497743  -0.1436859   0.0533776), wk =   0.0133333
        k(   26) = (   0.0497743  -0.1436859   0.1601327), wk =   0.0133333
        k(   27) = (   0.0497743  -0.1436859   0.2668878), wk =   0.0133333
        k(   28) = (   0.0497743  -0.0287372   0.0533776), wk =   0.0066667
        k(   29) = (   0.0497743  -0.0287372   0.1601327), wk =   0.0066667
        k(   30) = (   0.0497743  -0.0287372   0.2668878), wk =   0.0066667
        k(   31) = (   0.1493228   0.2586346   0.0533776), wk =   0.0066667
        k(   32) = (   0.1493228   0.2586346   0.1601327), wk =   0.0066667
        k(   33) = (   0.1493228   0.2586346   0.2668878), wk =   0.0066667
        k(   34) = (   0.1493228   0.3735834   0.0533776), wk =   0.0133333
        k(   35) = (   0.1493228   0.3735834   0.1601327), wk =   0.0133333
        k(   36) = (   0.1493228   0.3735834   0.2668878), wk =   0.0133333
        k(   37) = (   0.1493228   0.4885321   0.0533776), wk =   0.0133333
        k(   38) = (   0.1493228   0.4885321   0.1601327), wk =   0.0133333
        k(   39) = (   0.1493228   0.4885321   0.2668878), wk =   0.0133333
        k(   40) = (   0.1493228   0.6034808   0.0533776), wk =   0.0133333
        k(   41) = (   0.1493228   0.6034808   0.1601327), wk =   0.0133333
        k(   42) = (   0.1493228   0.6034808   0.2668878), wk =   0.0133333
        k(   43) = (   0.1493228  -0.4310577   0.0533776), wk =   0.0133333
        k(   44) = (   0.1493228  -0.4310577   0.1601327), wk =   0.0133333
        k(   45) = (   0.1493228  -0.4310577   0.2668878), wk =   0.0133333
        k(   46) = (   0.1493228  -0.3161090   0.0533776), wk =   0.0133333
        k(   47) = (   0.1493228  -0.3161090   0.1601327), wk =   0.0133333
        k(   48) = (   0.1493228  -0.3161090   0.2668878), wk =   0.0133333
        k(   49) = (   0.1493228  -0.2011603   0.0533776), wk =   0.0133333
        k(   50) = (   0.1493228  -0.2011603   0.1601327), wk =   0.0133333
        k(   51) = (   0.1493228  -0.2011603   0.2668878), wk =   0.0133333
        k(   52) = (   0.1493228  -0.0862115   0.0533776), wk =   0.0066667
        k(   53) = (   0.1493228  -0.0862115   0.1601327), wk =   0.0066667
        k(   54) = (   0.1493228  -0.0862115   0.2668878), wk =   0.0066667
        k(   55) = (   0.2488713   0.4310577   0.0533776), wk =   0.0066667
        k(   56) = (   0.2488713   0.4310577   0.1601327), wk =   0.0066667
        k(   57) = (   0.2488713   0.4310577   0.2668878), wk =   0.0066667
        k(   58) = (   0.2488713   0.5460064   0.0533776), wk =   0.0133333
        k(   59) = (   0.2488713   0.5460064   0.1601327), wk =   0.0133333
        k(   60) = (   0.2488713   0.5460064   0.2668878), wk =   0.0133333
[...]
        k(   76) = (   0.3484198   0.7184295   0.0533776), wk =   0.0133333
        k(   77) = (   0.3484198   0.7184295   0.1601327), wk =   0.0133333
        k(   78) = (   0.3484198   0.7184295   0.2668878), wk =   0.0133333
        k(   79) = (   0.3484198  -0.3161090   0.0533776), wk =   0.0133333
        k(   80) = (   0.3484198  -0.3161090   0.1601327), wk =   0.0133333
        k(   81) = (   0.3484198  -0.3161090   0.2668878), wk =   0.0133333
        k(   82) = (   0.3484198  -0.2011603   0.0533776), wk =   0.0066667
        k(   83) = (   0.3484198  -0.2011603   0.1601327), wk =   0.0066667
        k(   84) = (   0.3484198  -0.2011603   0.2668878), wk =   0.0066667
        k(   85) = (   0.4479683   0.7759039   0.0533776), wk =   0.0066667
        k(   86) = (   0.4479683   0.7759039   0.1601327), wk =   0.0066667
        k(   87) = (   0.4479683   0.7759039   0.2668878), wk =   0.0066667
        k(   88) = (   0.4479683  -0.2586346   0.0533776), wk =   0.0066667
        k(   89) = (   0.4479683  -0.2586346   0.1601327), wk =   0.0066667
        k(   90) = (   0.4479683  -0.2586346   0.2668878), wk =   0.0066667

     Initial potential from superposition of free atoms

     starting charge   21.96291, renormalised to   22.00000
     Starting wfcs are   26 randomized atomic wfcs
     Checking if some PAW data can be deallocated...

     Self-consistent Calculation

[...]

     total energy              =   -1237.14826676 Ry
     Harris-Foulkes estimate   =   -1237.14826678 Ry
     estimated scf accuracy    <       0.00000003 Ry

[...]

     iteration #  6     ecut=    37.00 Ry     beta= 0.70
     Davidson diagonalization with overlap
     ethr =  1.36E-10,  avg # of iterations =  2.1

     Magnetic moment per site:
     atom:    1    charge:    9.4923    magn:    0.0000    constr:    0.0000
     atom:    2    charge:    9.4923    magn:    0.0000    constr:    0.0000

     End of self-consistent calculation

     Number of k-points >= 100: set verbosity='high' to print the bands.

     the Fermi energy is    10.2079 ev

!    total energy              =   -1237.14826676 Ry
     Harris-Foulkes estimate   =   -1237.14826677 Ry
     estimated scf accuracy    <          4.6E-09 Ry

     total all-electron energy =    -52345.445385 Ry

     The total energy is the sum of the following terms:

     one-electron contribution =     -35.08197435 Ry
     hartree contribution      =      25.24800444 Ry
     xc contribution           =    -114.71530949 Ry
     ewald contribution        =    -118.01973684 Ry
     one-center paw contrib.   =    -994.57829903 Ry
     smearing contrib. (-TS)   =      -0.00095149 Ry

     total magnetization       =     0.00 Bohr mag/cell
     absolute magnetization    =     0.00 Bohr mag/cell

     convergence has been achieved in   6 iterations

     Forces acting on atoms (cartesian axes, Ry/au):

     atom    1 type  1   force =     0.00000000    0.00000000    0.00000000
     atom    2 type  1   force =     0.00000000    0.00000000    0.00000000

     Total force =     0.000000     Total SCF correction =     0.000000

     Computing stress (Cartesian axis) and pressure

          total   stress  (Ry/bohr**3)                   (kbar)     P=   -0.48
  -0.00000304   0.00000000  -0.00000000         -0.45      0.00     -0.00
   0.00000000  -0.00000304  -0.00000000          0.00     -0.45     -0.00
  -0.00000000   0.00000000  -0.00000366         -0.00      0.00     -0.54

     Writing output data file pw.save/

     General routines

     Parallel routines

   This run was terminated on:  23:55: 3   6Nov2020

   JOB DONE.