     Program PWSCF v.6.4.1 starts on  7Nov2020 at  6:37:10

     R & G space division:  proc/nbgrp/npool/nimage =       2
     Waiting for input...
     Reading input from standard input

     Current dimensions of program PWSCF are:
     Max number of different atomic species (ntypx) = 10
     Max number of k-points (npk) =  40000
     Max angular momentum in pseudopotentials (lmaxx) =  3
               file Gd.pbe-spdn-kjpaw_psl.1.0.0.UPF: wavefunction(s)  5P renormalized

     Subspace diagonalization in iterative solution of the eigenvalue problem:
     a serial algorithm will be used

     Message from routine setup:
     DEPRECATED: symmetry with ibrav=0, use correct ibrav instead

     bravais-lattice index     =            0
     lattice parameter (alat)  =       6.9088  a.u.
     unit-cell volume          =     451.7132 (a.u.)^3
     number of atoms/cell      =            2
     number of atomic types    =            1
     number of electrons       =        22.00
     number of Kohn-Sham states=           15
     kinetic-energy cutoff     =      35.0000  Ry
     charge density cutoff     =     227.0000  Ry
     convergence threshold     =      1.0E-06
     mixing beta               =       0.7000
     number of iterations used =            8  plain     mixing
     Exchange-correlation      = SLA PW PBX PBC ( 1  4  3  4 0 0)
     nstep                     =           50

     celldm(1)=   6.908839  celldm(2)=   0.000000  celldm(3)=   0.000000
     celldm(4)=   0.000000  celldm(5)=   0.000000  celldm(6)=   0.000000

     crystal axes: (cart. coord. in units of alat)
               a(1) = (   1.000000   0.000000   0.000000 )
               a(2) = (  -0.500000   0.866025   0.000000 )
               a(3) = (   0.000000   0.000000   1.581674 )

     reciprocal axes: (cart. coord. in units 2 pi/alat)
               b(1) = (  1.000000  0.577350 -0.000000 )
               b(2) = (  0.000000  1.154701  0.000000 )
               b(3) = (  0.000000 -0.000000  0.632242 )

     PseudoPot. # 1 for Gd read from file:
     ./potentials/Gd.pbe-spdn-kjpaw_psl.1.0.0.UPF
     MD5 check sum: 2db90c2689fc8faff38c08107bbac581
     Pseudo is Projector augmented-wave + core cor, Zval = 11.0
     Generated using "atomic" code by A. Dal Corso v.6.2.2
     Shape of augmentation charge: PSQ
     Using radial grid of 1263 points,  6 beta functions with:
                l(1) =   0
                l(2) =   0
                l(3) =   1
                l(4) =   1
                l(5) =   2
                l(6) =   2
     Q(r) pseudized with 0 coefficients

     atomic species   valence    mass     pseudopotential
        Gd            11.00   157.25000     Gd( 1.00)

     Starting magnetic structure
     atomic species   magnetization
        Gd           1.000

     24 Sym. Ops., with inversion, found (12 have fractional translation)

   Cartesian axes

     site n.     atom                  positions (alat units)
         1           Gd  tau(   1) = (   0.5000000   0.2886751   1.1862555  )
         2           Gd  tau(   2) = (  -0.0000000   0.5773503   0.3954185  )

     number of k points=    60  Methfessel-Paxton smearing, width (Ry)=  0.0200
                       cart. coord. in units 2pi/alat
        k(    1) = (   0.0500000   0.0866025   0.0790302), wk =   0.0100000
        k(    2) = (   0.0500000   0.0866025   0.2370906), wk =   0.0100000
        k(    3) = (   0.0500000   0.2020726   0.0790302), wk =   0.0200000
        k(    4) = (   0.0500000   0.2020726   0.2370906), wk =   0.0200000
        k(    5) = (   0.0500000   0.3175426   0.0790302), wk =   0.0200000
        k(    6) = (   0.0500000   0.3175426   0.2370906), wk =   0.0200000
        k(    7) = (   0.0500000   0.4330127   0.0790302), wk =   0.0200000
        k(    8) = (   0.0500000   0.4330127   0.2370906), wk =   0.0200000
        k(    9) = (   0.0500000   0.5484828   0.0790302), wk =   0.0200000
        k(   10) = (   0.0500000   0.5484828   0.2370906), wk =   0.0200000
        k(   11) = (   0.0500000  -0.4907477   0.0790302), wk =   0.0200000
        k(   12) = (   0.0500000  -0.4907477   0.2370906), wk =   0.0200000
        k(   13) = (   0.0500000  -0.3752777   0.0790302), wk =   0.0200000
        k(   14) = (   0.0500000  -0.3752777   0.2370906), wk =   0.0200000
        k(   15) = (   0.0500000  -0.2598076   0.0790302), wk =   0.0200000
        k(   16) = (   0.0500000  -0.2598076   0.2370906), wk =   0.0200000
        k(   17) = (   0.0500000  -0.1443376   0.0790302), wk =   0.0200000
        k(   18) = (   0.0500000  -0.1443376   0.2370906), wk =   0.0200000
        k(   19) = (   0.0500000  -0.0288675   0.0790302), wk =   0.0100000
        k(   20) = (   0.0500000  -0.0288675   0.2370906), wk =   0.0100000
        k(   21) = (   0.1500000   0.2598076   0.0790302), wk =   0.0100000
        k(   22) = (   0.1500000   0.2598076   0.2370906), wk =   0.0100000
        k(   23) = (   0.1500000   0.3752777   0.0790302), wk =   0.0200000
        k(   24) = (   0.1500000   0.3752777   0.2370906), wk =   0.0200000
        k(   25) = (   0.1500000   0.4907477   0.0790302), wk =   0.0200000
        k(   26) = (   0.1500000   0.4907477   0.2370906), wk =   0.0200000
        k(   27) = (   0.1500000   0.6062178   0.0790302), wk =   0.0200000
        k(   28) = (   0.1500000   0.6062178   0.2370906), wk =   0.0200000
        k(   29) = (   0.1500000  -0.4330127   0.0790302), wk =   0.0200000
        k(   30) = (   0.1500000  -0.4330127   0.2370906), wk =   0.0200000
        k(   31) = (   0.1500000  -0.3175426   0.0790302), wk =   0.0200000
        k(   32) = (   0.1500000  -0.3175426   0.2370906), wk =   0.0200000
        k(   33) = (   0.1500000  -0.2020726   0.0790302), wk =   0.0200000
        k(   34) = (   0.1500000  -0.2020726   0.2370906), wk =   0.0200000
        k(   35) = (   0.1500000  -0.0866025   0.0790302), wk =   0.0100000
        k(   36) = (   0.1500000  -0.0866025   0.2370906), wk =   0.0100000
        k(   37) = (   0.2500000   0.4330127   0.0790302), wk =   0.0100000
        k(   38) = (   0.2500000   0.4330127   0.2370906), wk =   0.0100000
        k(   39) = (   0.2500000   0.5484828   0.0790302), wk =   0.0200000
        k(   40) = (   0.2500000   0.5484828   0.2370906), wk =   0.0200000
        k(   41) = (   0.2500000   0.6639528   0.0790302), wk =   0.0200000
        k(   42) = (   0.2500000   0.6639528   0.2370906), wk =   0.0200000
        k(   43) = (   0.2500000  -0.3752777   0.0790302), wk =   0.0200000
        k(   44) = (   0.2500000  -0.3752777   0.2370906), wk =   0.0200000
        k(   45) = (   0.2500000  -0.2598076   0.0790302), wk =   0.0200000
        k(   46) = (   0.2500000  -0.2598076   0.2370906), wk =   0.0200000
        k(   47) = (   0.2500000  -0.1443376   0.0790302), wk =   0.0100000
        k(   48) = (   0.2500000  -0.1443376   0.2370906), wk =   0.0100000
        k(   49) = (   0.3500000   0.6062178   0.0790302), wk =   0.0100000
        k(   50) = (   0.3500000   0.6062178   0.2370906), wk =   0.0100000
        k(   51) = (   0.3500000   0.7216878   0.0790302), wk =   0.0200000
        k(   52) = (   0.3500000   0.7216878   0.2370906), wk =   0.0200000
        k(   53) = (   0.3500000  -0.3175426   0.0790302), wk =   0.0200000
        k(   54) = (   0.3500000  -0.3175426   0.2370906), wk =   0.0200000
        k(   55) = (   0.3500000  -0.2020726   0.0790302), wk =   0.0100000
        k(   56) = (   0.3500000  -0.2020726   0.2370906), wk =   0.0100000
        k(   57) = (   0.4500000   0.7794229   0.0790302), wk =   0.0100000
        k(   58) = (   0.4500000   0.7794229   0.2370906), wk =   0.0100000
        k(   59) = (   0.4500000  -0.2598076   0.0790302), wk =   0.0100000
        k(   60) = (   0.4500000  -0.2598076   0.2370906), wk =   0.0100000

     Initial potential from superposition of free atoms

     starting charge   21.95303, renormalised to   22.00000

     negative rho (up, down):  0.000E+00 6.059E-03
     Starting wfcs are   26 randomized atomic wfcs
     Checking if some PAW data can be deallocated...

     Self-consistent Calculation

     iteration #  1     ecut=    35.00 Ry     beta= 0.70
     Davidson diagonalization with overlap
     ethr =  1.00E-02,  avg # of iterations =  1.9

     total energy              =   -1113.66900617 Ry
     Harris-Foulkes estimate   =   -1111.90297006 Ry
     estimated scf accuracy    <       1.09567712 Ry

     total magnetization       =     4.74 Bohr mag/cell
     absolute magnetization    =     4.74 Bohr mag/cell

[...]

     Magnetic moment per site:
     atom:    1    charge:    9.5131    magn:    0.0181    constr:    0.0000
     atom:    2    charge:    9.5131    magn:    0.0181    constr:    0.0000

     End of self-consistent calculation

     Number of k-points >= 100: set verbosity='high' to print the bands.

     the Fermi energy is    10.1197 ev

!    total energy              =   -1114.04492097 Ry
     Harris-Foulkes estimate   =   -1114.04491607 Ry
     estimated scf accuracy    <       0.00000041 Ry

     total all-electron energy =    -45085.165294 Ry

     The total energy is the sum of the following terms:

     one-electron contribution =     -26.74754165 Ry
     hartree contribution      =      21.90032563 Ry
     xc contribution           =    -125.45446530 Ry
     ewald contribution        =    -114.75212970 Ry
     one-center paw contrib.   =    -868.99043115 Ry
     smearing contrib. (-TS)   =      -0.00067879 Ry

[...]

     convergence has been achieved in   9 iterations

     Forces acting on atoms (cartesian axes, Ry/au):

     atom    1 type  1   force =     0.00000000    0.00000000    0.00000000
     atom    2 type  1   force =     0.00000000   -0.00000000    0.00000000

     Total force =     0.000000     Total SCF correction =     0.000000

     Computing stress (Cartesian axis) and pressure

          total   stress  (Ry/bohr**3)                   (kbar)     P=   -9.40
  -0.00005336   0.00000000  -0.00000000         -7.85      0.00     -0.00
   0.00000000  -0.00005336   0.00000000          0.00     -7.85      0.00
   0.00000000  -0.00000000  -0.00008507          0.00     -0.00    -12.51

     BFGS Geometry Optimization

     number of scf cycles    =   1
     number of bfgs steps    =   0

     enthalpy new            =   -1114.0449209680 Ry

     new trust radius        =       0.0090398050 bohr
     new conv_thr            =       0.0000010000 Ry

     new unit-cell volume =    449.55074 a.u.^3 (    66.61655 Ang^3 )
     density =      7.83949 g/cm^3

CELL_PARAMETERS (alat=  6.90883874)
   0.998665998   0.000000000   0.000000000
  -0.499332999   0.864870124  -0.000000000
  -0.000000000   0.000000000   1.578310281

ATOMIC_POSITIONS (crystal)
Gd       0.666666667   0.333333333   0.750000000
Gd       0.333333333   0.666666667   0.250000000

     Writing output data file pw.save/
     NEW-OLD atomic charge density approx. for the potential
     extrapolated charge   21.89440, renormalised to   22.00000

[...]

     enthalpy old            =   -1114.0449209680 Ry
     enthalpy new            =   -1114.0450664547 Ry

     CASE: enthalpy_new < enthalpy_old

     WARNING: bfgs curvature condition failed, Theta= 0.948
     new trust radius        =       0.0135560410 bohr
     new conv_thr            =       0.0000000100 Ry

[...]

     Threshold (ethr) on eigenvalues was too large:
     Diagonalizing with lowered threshold

     Davidson diagonalization with overlap
     ethr =  2.08E-10,  avg # of iterations =  3.1

[...]

     WARNING: bfgs curvature condition failed, Theta= 0.921
     new trust radius        =       0.0009849700 bohr
     new conv_thr            =       0.0000000100 Ry

[...]

     number of scf cycles    =   7
     number of bfgs steps    =   6

     enthalpy old            =   -1114.0453658153 Ry
     enthalpy new            =   -1114.0453668354 Ry

     CASE: enthalpy_new < enthalpy_old

     new trust radius        =       0.0014778872 bohr
     new conv_thr            =       0.0000000100 Ry

     new unit-cell volume =    439.37008 a.u.^3 (    65.10793 Ang^3 )
     density =      8.02114 g/cm^3

[...]

ATOMIC_POSITIONS (crystal)
Gd       0.666666667   0.333333333   0.750000000
Gd       0.333333333   0.666666667   0.250000000

     Writing output data file pw.save/
     NEW-OLD atomic charge density approx. for the potential
     extrapolated charge   22.00276, renormalised to   22.00000

[...]

     Threshold (ethr) on eigenvalues was too large:
     Diagonalizing with lowered threshold

     Davidson diagonalization with overlap
     ethr =  7.15E-10,  avg # of iterations =  2.9

[...]

Begin final coordinates
     new unit-cell volume =    439.37008 a.u.^3 (    65.10793 Ang^3 )
     density =      8.02114 g/cm^3

[...]

ATOMIC_POSITIONS (crystal)
Gd       0.666666667   0.333333333   0.750000000
Gd       0.333333333   0.666666667   0.250000000
End final coordinates

     Writing output data file pw.save/

     lsda relaxation :  a final configuration with zero
                        absolute magnetization has been found

     the program is checking if it is really the minimum energy structure
     by performing a new scf iteration without any "electronic" history

[...]

     starting charge   21.95303, renormalised to   22.00000

     negative rho (up, down):  0.000E+00 2.572E-03

[...]

     bfgs converged in   8 scf cycles and   7 bfgs steps
     (criteria: energy <  1.0E-04 Ry, force <  1.0E-03Ry/Bohr, cell <  5.0E-01kbar)

     End of BFGS Geometry Optimization

     Final enthalpy =   -1114.0453679760 Ry
Begin final coordinates
     new unit-cell volume =    439.37008 a.u.^3 (    65.10793 Ang^3 )
     density =      8.02114 g/cm^3

CELL_PARAMETERS (alat=  6.90883874)
   0.993007466  -0.000000000   0.000000000
  -0.496503733   0.859969692   0.000000000
  -0.000000000   0.000000000   1.560197764

ATOMIC_POSITIONS (crystal)
Gd       0.666666667   0.333333333   0.750000000
Gd       0.333333333   0.666666667   0.250000000
End final coordinates

[...]

     A final scf calculation at the relaxed structure.
     The G-vectors are recalculated for the final unit cell
     Results may differ from those at the preceding step.

     bravais-lattice index     =            0
     lattice parameter (alat)  =       6.9088  a.u.
     unit-cell volume          =     439.3701 (a.u.)^3
     number of atoms/cell      =            2
     number of atomic types    =            1
     number of electrons       =        22.00
     number of Kohn-Sham states=           15
     kinetic-energy cutoff     =      35.0000  Ry
     charge density cutoff     =     227.0000  Ry
     convergence threshold     =      1.0E-08
     mixing beta               =       0.7000
     number of iterations used =            8  plain     mixing
     Exchange-correlation      = SLA PW PBX PBC ( 1  4  3  4 0 0)

     celldm(1)=   6.908839  celldm(2)=   0.000000  celldm(3)=   0.000000
     celldm(4)=   0.000000  celldm(5)=   0.000000  celldm(6)=   0.000000

     crystal axes: (cart. coord. in units of alat)
               a(1) = (   0.993007  -0.000000   0.000000 )
               a(2) = (  -0.496504   0.859970   0.000000 )
               a(3) = (  -0.000000   0.000000   1.560198 )

     reciprocal axes: (cart. coord. in units 2 pi/alat)
               b(1) = (  1.007042  0.581416  0.000000 )
               b(2) = (  0.000000  1.162832 -0.000000 )
               b(3) = ( -0.000000 -0.000000  0.640944 )

     PseudoPot. # 1 for Gd read from file:
     ./potentials/Gd.pbe-spdn-kjpaw_psl.1.0.0.UPF
     MD5 check sum: 2db90c2689fc8faff38c08107bbac581
     Pseudo is Projector augmented-wave + core cor, Zval = 11.0
     Generated using "atomic" code by A. Dal Corso v.6.2.2
     Shape of augmentation charge: PSQ
     Using radial grid of 1263 points,  6 beta functions with:
                l(1) =   0
                l(2) =   0
                l(3) =   1
                l(4) =   1
                l(5) =   2
                l(6) =   2
     Q(r) pseudized with 0 coefficients

     atomic species   valence    mass     pseudopotential
        Gd            11.00   157.25000     Gd( 1.00)

     Starting magnetic structure
     atomic species   magnetization
        Gd          -0.000

     24 Sym. Ops., with inversion, found (12 have fractional translation)

   Cartesian axes

     site n.     atom                  positions (alat units)
         1           Gd  tau(   1) = (   0.4965037   0.2866566   1.1701483  )
         2           Gd  tau(   2) = (  -0.0000000   0.5733131   0.3900494  )

     number of k points=    60  Methfessel-Paxton smearing, width (Ry)=  0.0200
                       cart. coord. in units 2pi/alat
        k(    1) = (   0.0503521   0.0872124   0.0801180), wk =   0.0100000
        k(    2) = (   0.0503521   0.0872124   0.2403541), wk =   0.0100000
        k(    3) = (   0.0503521   0.2034955   0.0801180), wk =   0.0200000
        k(    4) = (   0.0503521   0.2034955   0.2403541), wk =   0.0200000
        k(    5) = (   0.0503521   0.3197787   0.0801180), wk =   0.0200000
        k(    6) = (   0.0503521   0.3197787   0.2403541), wk =   0.0200000
        k(    7) = (   0.0503521   0.4360619   0.0801180), wk =   0.0200000
        k(    8) = (   0.0503521   0.4360619   0.2403541), wk =   0.0200000
        k(    9) = (   0.0503521   0.5523450   0.0801180), wk =   0.0200000
        k(   10) = (   0.0503521   0.5523450   0.2403541), wk =   0.0200000
        k(   11) = (   0.0503521  -0.4942035   0.0801180), wk =   0.0200000
        k(   12) = (   0.0503521  -0.4942035   0.2403541), wk =   0.0200000
        k(   13) = (   0.0503521  -0.3779203   0.0801180), wk =   0.0200000
        k(   14) = (   0.0503521  -0.3779203   0.2403541), wk =   0.0200000
        k(   15) = (   0.0503521  -0.2616371   0.0801180), wk =   0.0200000
        k(   16) = (   0.0503521  -0.2616371   0.2403541), wk =   0.0200000
        k(   17) = (   0.0503521  -0.1453540   0.0801180), wk =   0.0200000
        k(   18) = (   0.0503521  -0.1453540   0.2403541), wk =   0.0200000
        k(   19) = (   0.0503521  -0.0290708   0.0801180), wk =   0.0100000
        k(   20) = (   0.0503521  -0.0290708   0.2403541), wk =   0.0100000
        k(   21) = (   0.1510563   0.2616371   0.0801180), wk =   0.0100000
        k(   22) = (   0.1510563   0.2616371   0.2403541), wk =   0.0100000
        k(   23) = (   0.1510563   0.3779203   0.0801180), wk =   0.0200000
        k(   24) = (   0.1510563   0.3779203   0.2403541), wk =   0.0200000
        k(   25) = (   0.1510563   0.4942035   0.0801180), wk =   0.0200000
        k(   26) = (   0.1510563   0.4942035   0.2403541), wk =   0.0200000
        k(   27) = (   0.1510563   0.6104866   0.0801180), wk =   0.0200000
        k(   28) = (   0.1510563   0.6104866   0.2403541), wk =   0.0200000
        k(   29) = (   0.1510563  -0.4360619   0.0801180), wk =   0.0200000
        k(   30) = (   0.1510563  -0.4360619   0.2403541), wk =   0.0200000
        k(   31) = (   0.1510563  -0.3197787   0.0801180), wk =   0.0200000
        k(   32) = (   0.1510563  -0.3197787   0.2403541), wk =   0.0200000
        k(   33) = (   0.1510563  -0.2034955   0.0801180), wk =   0.0200000
        k(   34) = (   0.1510563  -0.2034955   0.2403541), wk =   0.0200000
        k(   35) = (   0.1510563  -0.0872124   0.0801180), wk =   0.0100000
        k(   36) = (   0.1510563  -0.0872124   0.2403541), wk =   0.0100000
        k(   37) = (   0.2517604   0.4360619   0.0801180), wk =   0.0100000
        k(   38) = (   0.2517604   0.4360619   0.2403541), wk =   0.0100000
        k(   39) = (   0.2517604   0.5523450   0.0801180), wk =   0.0200000
        k(   40) = (   0.2517604   0.5523450   0.2403541), wk =   0.0200000
        k(   41) = (   0.2517604   0.6686282   0.0801180), wk =   0.0200000
        k(   42) = (   0.2517604   0.6686282   0.2403541), wk =   0.0200000
        k(   43) = (   0.2517604  -0.3779203   0.0801180), wk =   0.0200000
        k(   44) = (   0.2517604  -0.3779203   0.2403541), wk =   0.0200000
        k(   45) = (   0.2517604  -0.2616371   0.0801180), wk =   0.0200000
        k(   46) = (   0.2517604  -0.2616371   0.2403541), wk =   0.0200000
        k(   47) = (   0.2517604  -0.1453540   0.0801180), wk =   0.0100000
        k(   48) = (   0.2517604  -0.1453540   0.2403541), wk =   0.0100000
        k(   49) = (   0.3524646   0.6104866   0.0801180), wk =   0.0100000
        k(   50) = (   0.3524646   0.6104866   0.2403541), wk =   0.0100000
        k(   51) = (   0.3524646   0.7267698   0.0801180), wk =   0.0200000
        k(   52) = (   0.3524646   0.7267698   0.2403541), wk =   0.0200000
        k(   53) = (   0.3524646  -0.3197787   0.0801180), wk =   0.0200000
        k(   54) = (   0.3524646  -0.3197787   0.2403541), wk =   0.0200000
        k(   55) = (   0.3524646  -0.2034955   0.0801180), wk =   0.0100000
        k(   56) = (   0.3524646  -0.2034955   0.2403541), wk =   0.0100000
        k(   57) = (   0.4531688   0.7849114   0.0801180), wk =   0.0100000
        k(   58) = (   0.4531688   0.7849114   0.2403541), wk =   0.0100000
        k(   59) = (   0.4531688  -0.2616371   0.0801180), wk =   0.0100000
        k(   60) = (   0.4531688  -0.2616371   0.2403541), wk =   0.0100000

     Initial potential from superposition of free atoms

     starting charge   21.95303, renormalised to   22.00000
     Starting wfcs are   26 randomized atomic wfcs
     Checking if some PAW data can be deallocated...

     Self-consistent Calculation

[...]

     total energy              =   -1114.04530584 Ry
     Harris-Foulkes estimate   =   -1114.04530586 Ry
     estimated scf accuracy    <       0.00000002 Ry

[...]

     iteration #  6     ecut=    35.00 Ry     beta= 0.70
     Davidson diagonalization with overlap
     ethr =  8.20E-11,  avg # of iterations =  2.0

     Magnetic moment per site:
     atom:    1    charge:    9.4892    magn:    0.0000    constr:    0.0000
     atom:    2    charge:    9.4892    magn:    0.0000    constr:    0.0000

     End of self-consistent calculation

     Number of k-points >= 100: set verbosity='high' to print the bands.

     the Fermi energy is    10.4535 ev

!    total energy              =   -1114.04530585 Ry
     Harris-Foulkes estimate   =   -1114.04530585 Ry
     estimated scf accuracy    <          1.5E-09 Ry

     total all-electron energy =    -45085.165679 Ry

     The total energy is the sum of the following terms:

     one-electron contribution =     -25.21653029 Ry
     hartree contribution      =      21.46432239 Ry
     xc contribution           =    -125.49243034 Ry
     ewald contribution        =    -115.80928886 Ry
     one-center paw contrib.   =    -868.99100561 Ry
     smearing contrib. (-TS)   =      -0.00037315 Ry

     total magnetization       =     0.00 Bohr mag/cell
     absolute magnetization    =     0.00 Bohr mag/cell

     convergence has been achieved in   6 iterations

     Forces acting on atoms (cartesian axes, Ry/au):

     atom    1 type  1   force =     0.00000000    0.00000000    0.00000000
     atom    2 type  1   force =     0.00000000    0.00000000    0.00000000

     Total force =     0.000000     Total SCF correction =     0.000000

     Computing stress (Cartesian axis) and pressure

          total   stress  (Ry/bohr**3)                   (kbar)     P=    0.39
   0.00000435   0.00000000  -0.00000000          0.64      0.00     -0.00
   0.00000000   0.00000435  -0.00000000          0.00      0.64     -0.00
   0.00000000  -0.00000000  -0.00000073          0.00     -0.00     -0.11

     Writing output data file pw.save/

     General routines

     Parallel routines

   This run was terminated on:   6:48:55   7Nov2020

   JOB DONE.