     Program PWSCF v.6.4.1 starts on  7Nov2020 at  6:50:45

     R & G space division:  proc/nbgrp/npool/nimage =       2
     Waiting for input...
     Reading input from standard input

     Current dimensions of program PWSCF are:
     Max number of different atomic species (ntypx) = 10
     Max number of k-points (npk) =  40000
     Max angular momentum in pseudopotentials (lmaxx) =  3
               file Hf.pbe-spn-kjpaw_psl.1.0.0.UPF: wavefunction(s)  5P renormalized

     Subspace diagonalization in iterative solution of the eigenvalue problem:
     a serial algorithm will be used

     Message from routine setup:
     DEPRECATED: symmetry with ibrav=0, use correct ibrav instead

     bravais-lattice index     =            0
     lattice parameter (alat)  =       6.0443  a.u.
     unit-cell volume          =     303.4378 (a.u.)^3
     number of atoms/cell      =            2
     number of atomic types    =            1
     number of electrons       =        24.00
     number of Kohn-Sham states=           16
     kinetic-energy cutoff     =      46.0000  Ry
     charge density cutoff     =     264.0000  Ry
     convergence threshold     =      1.0E-06
     mixing beta               =       0.7000
     number of iterations used =            8  plain     mixing
     Exchange-correlation      = SLA PW PBX PBC ( 1  4  3  4 0 0)
     nstep                     =           50

     celldm(1)=   6.044270  celldm(2)=   0.000000  celldm(3)=   0.000000
     celldm(4)=   0.000000  celldm(5)=   0.000000  celldm(6)=   0.000000

     crystal axes: (cart. coord. in units of alat)
               a(1) = (   1.000000   0.000000   0.000000 )
               a(2) = (  -0.500000   0.866025   0.000000 )
               a(3) = (   0.000000   0.000000   1.586746 )

     reciprocal axes: (cart. coord. in units 2 pi/alat)
               b(1) = (  1.000000  0.577350 -0.000000 )
               b(2) = (  0.000000  1.154701  0.000000 )
               b(3) = (  0.000000 -0.000000  0.630221 )

     PseudoPot. # 1 for Hf read from file:
     ./potentials/Hf.pbe-spn-kjpaw_psl.1.0.0.UPF
     MD5 check sum: bf8a91e620b6303fe4cf956cf37905ef
     Pseudo is Projector augmented-wave + core cor, Zval = 12.0
     Generated using "atomic" code by A. Dal Corso v.6.2.2
     Shape of augmentation charge: PSQ
     Using radial grid of 1271 points,  6 beta functions with:
                l(1) =   0
                l(2) =   0
                l(3) =   1
                l(4) =   1
                l(5) =   2
                l(6) =   2
     Q(r) pseudized with 0 coefficients

     atomic species   valence    mass     pseudopotential
        Hf            12.00   178.49000     Hf( 1.00)

     Starting magnetic structure
     atomic species   magnetization
        Hf           1.000

     24 Sym. Ops., with inversion, found (12 have fractional translation)

   Cartesian axes

     site n.     atom                  positions (alat units)
         1           Hf  tau(   1) = (   0.5000000   0.2886751   0.3966865  )
         2           Hf  tau(   2) = (  -0.0000000   0.5773503   1.1900596  )

     number of k points=    90  Methfessel-Paxton smearing, width (Ry)=  0.0200
                       cart. coord. in units 2pi/alat
        k(    1) = (   0.0500000   0.0866025   0.0525184), wk =   0.0066667
        k(    2) = (   0.0500000   0.0866025   0.1575551), wk =   0.0066667
        k(    3) = (   0.0500000   0.0866025   0.2625919), wk =   0.0066667
        k(    4) = (   0.0500000   0.2020726   0.0525184), wk =   0.0133333
        k(    5) = (   0.0500000   0.2020726   0.1575551), wk =   0.0133333
        k(    6) = (   0.0500000   0.2020726   0.2625919), wk =   0.0133333
        k(    7) = (   0.0500000   0.3175426   0.0525184), wk =   0.0133333
        k(    8) = (   0.0500000   0.3175426   0.1575551), wk =   0.0133333
        k(    9) = (   0.0500000   0.3175426   0.2625919), wk =   0.0133333
        k(   10) = (   0.0500000   0.4330127   0.0525184), wk =   0.0133333
        k(   11) = (   0.0500000   0.4330127   0.1575551), wk =   0.0133333
        k(   12) = (   0.0500000   0.4330127   0.2625919), wk =   0.0133333
        k(   13) = (   0.0500000   0.5484828   0.0525184), wk =   0.0133333
        k(   14) = (   0.0500000   0.5484828   0.1575551), wk =   0.0133333
        k(   15) = (   0.0500000   0.5484828   0.2625919), wk =   0.0133333
        k(   16) = (   0.0500000  -0.4907477   0.0525184), wk =   0.0133333
        k(   17) = (   0.0500000  -0.4907477   0.1575551), wk =   0.0133333
        k(   18) = (   0.0500000  -0.4907477   0.2625919), wk =   0.0133333
        k(   19) = (   0.0500000  -0.3752777   0.0525184), wk =   0.0133333
        k(   20) = (   0.0500000  -0.3752777   0.1575551), wk =   0.0133333
        k(   21) = (   0.0500000  -0.3752777   0.2625919), wk =   0.0133333
        k(   22) = (   0.0500000  -0.2598076   0.0525184), wk =   0.0133333
        k(   23) = (   0.0500000  -0.2598076   0.1575551), wk =   0.0133333
        k(   24) = (   0.0500000  -0.2598076   0.2625919), wk =   0.0133333
        k(   25) = (   0.0500000  -0.1443376   0.0525184), wk =   0.0133333
        k(   26) = (   0.0500000  -0.1443376   0.1575551), wk =   0.0133333
        k(   27) = (   0.0500000  -0.1443376   0.2625919), wk =   0.0133333
        k(   28) = (   0.0500000  -0.0288675   0.0525184), wk =   0.0066667
        k(   29) = (   0.0500000  -0.0288675   0.1575551), wk =   0.0066667
        k(   30) = (   0.0500000  -0.0288675   0.2625919), wk =   0.0066667
        k(   31) = (   0.1500000   0.2598076   0.0525184), wk =   0.0066667
        k(   32) = (   0.1500000   0.2598076   0.1575551), wk =   0.0066667
        k(   33) = (   0.1500000   0.2598076   0.2625919), wk =   0.0066667
        k(   34) = (   0.1500000   0.3752777   0.0525184), wk =   0.0133333
        k(   35) = (   0.1500000   0.3752777   0.1575551), wk =   0.0133333
        k(   36) = (   0.1500000   0.3752777   0.2625919), wk =   0.0133333
        k(   37) = (   0.1500000   0.4907477   0.0525184), wk =   0.0133333
        k(   38) = (   0.1500000   0.4907477   0.1575551), wk =   0.0133333
        k(   39) = (   0.1500000   0.4907477   0.2625919), wk =   0.0133333
        k(   40) = (   0.1500000   0.6062178   0.0525184), wk =   0.0133333
        k(   41) = (   0.1500000   0.6062178   0.1575551), wk =   0.0133333
        k(   42) = (   0.1500000   0.6062178   0.2625919), wk =   0.0133333
        k(   43) = (   0.1500000  -0.4330127   0.0525184), wk =   0.0133333
        k(   44) = (   0.1500000  -0.4330127   0.1575551), wk =   0.0133333
        k(   45) = (   0.1500000  -0.4330127   0.2625919), wk =   0.0133333
        k(   46) = (   0.1500000  -0.3175426   0.0525184), wk =   0.0133333
        k(   47) = (   0.1500000  -0.3175426   0.1575551), wk =   0.0133333
        k(   48) = (   0.1500000  -0.3175426   0.2625919), wk =   0.0133333
        k(   49) = (   0.1500000  -0.2020726   0.0525184), wk =   0.0133333
        k(   50) = (   0.1500000  -0.2020726   0.1575551), wk =   0.0133333
        k(   51) = (   0.1500000  -0.2020726   0.2625919), wk =   0.0133333
        k(   52) = (   0.1500000  -0.0866025   0.0525184), wk =   0.0066667
        k(   53) = (   0.1500000  -0.0866025   0.1575551), wk =   0.0066667
        k(   54) = (   0.1500000  -0.0866025   0.2625919), wk =   0.0066667
        k(   55) = (   0.2500000   0.4330127   0.0525184), wk =   0.0066667
        k(   56) = (   0.2500000   0.4330127   0.1575551), wk =   0.0066667
        k(   57) = (   0.2500000   0.4330127   0.2625919), wk =   0.0066667
        k(   58) = (   0.2500000   0.5484828   0.0525184), wk =   0.0133333
        k(   59) = (   0.2500000   0.5484828   0.1575551), wk =   0.0133333
        k(   60) = (   0.2500000   0.5484828   0.2625919), wk =   0.0133333
[...]
        k(   76) = (   0.3500000   0.7216878   0.0525184), wk =   0.0133333
        k(   77) = (   0.3500000   0.7216878   0.1575551), wk =   0.0133333
        k(   78) = (   0.3500000   0.7216878   0.2625919), wk =   0.0133333
        k(   79) = (   0.3500000  -0.3175426   0.0525184), wk =   0.0133333
        k(   80) = (   0.3500000  -0.3175426   0.1575551), wk =   0.0133333
        k(   81) = (   0.3500000  -0.3175426   0.2625919), wk =   0.0133333
        k(   82) = (   0.3500000  -0.2020726   0.0525184), wk =   0.0066667
        k(   83) = (   0.3500000  -0.2020726   0.1575551), wk =   0.0066667
        k(   84) = (   0.3500000  -0.2020726   0.2625919), wk =   0.0066667
        k(   85) = (   0.4500000   0.7794229   0.0525184), wk =   0.0066667
        k(   86) = (   0.4500000   0.7794229   0.1575551), wk =   0.0066667
        k(   87) = (   0.4500000   0.7794229   0.2625919), wk =   0.0066667
        k(   88) = (   0.4500000  -0.2598076   0.0525184), wk =   0.0066667
        k(   89) = (   0.4500000  -0.2598076   0.1575551), wk =   0.0066667
        k(   90) = (   0.4500000  -0.2598076   0.2625919), wk =   0.0066667

     Initial potential from superposition of free atoms

     starting charge   23.99612, renormalised to   24.00000

     negative rho (up, down):  0.000E+00 9.766E-04
     Starting wfcs are   20 randomized atomic wfcs
     Checking if some PAW data can be deallocated...

     Self-consistent Calculation

     iteration #  1     ecut=    46.00 Ry     beta= 0.70
     Davidson diagonalization with overlap
     ethr =  1.00E-02,  avg # of iterations =  2.6

     total energy              =   -1391.91147186 Ry
     Harris-Foulkes estimate   =   -1389.88173631 Ry
     estimated scf accuracy    <       1.87768611 Ry

     total magnetization       =     5.54 Bohr mag/cell
     absolute magnetization    =     5.54 Bohr mag/cell

[...]

     Magnetic moment per site:
     atom:    1    charge:   10.1698    magn:    0.0009    constr:    0.0000
     atom:    2    charge:   10.1698    magn:    0.0009    constr:    0.0000

     End of self-consistent calculation

     Number of k-points >= 100: set verbosity='high' to print the bands.

     the Fermi energy is    14.5675 ev

!    total energy              =   -1392.43395950 Ry
     Harris-Foulkes estimate   =   -1392.43395865 Ry
     estimated scf accuracy    <       0.00000017 Ry

     total all-electron energy =    -60313.958330 Ry

     The total energy is the sum of the following terms:

     one-electron contribution =     -33.36615043 Ry
     hartree contribution      =      28.14766161 Ry
     xc contribution           =     -82.84782393 Ry
     ewald contribution        =    -155.93636572 Ry
     one-center paw contrib.   =   -1148.43182098 Ry
     smearing contrib. (-TS)   =       0.00053996 Ry

[...]

     convergence has been achieved in   8 iterations

     Forces acting on atoms (cartesian axes, Ry/au):

     atom    1 type  1   force =     0.00000000    0.00000000    0.00000000
     atom    2 type  1   force =     0.00000000    0.00000000    0.00000000

     Total force =     0.000000     Total SCF correction =     0.000000

     Computing stress (Cartesian axis) and pressure

          total   stress  (Ry/bohr**3)                   (kbar)     P=  -17.81
  -0.00010864  -0.00000000   0.00000000        -15.98     -0.00      0.00
  -0.00000000  -0.00010864   0.00000000         -0.00    -15.98      0.00
  -0.00000000   0.00000000  -0.00014587         -0.00      0.00    -21.46

     BFGS Geometry Optimization

     number of scf cycles    =   1
     number of bfgs steps    =   0

     enthalpy new            =   -1392.4339595015 Ry

     new trust radius        =       0.0127045398 bohr
     new conv_thr            =       0.0000010000 Ry

     new unit-cell volume =    300.69124 a.u.^3 (    44.55784 Ang^3 )
     density =     13.30359 g/cm^3

CELL_PARAMETERS (alat=  6.04427014)
   0.997284037  -0.000000000  -0.000000000
  -0.498642018   0.863673311   0.000000000
   0.000000000   0.000000000   1.580959763

ATOMIC_POSITIONS (crystal)
Hf       0.666666667   0.333333333   0.250000000
Hf       0.333333333   0.666666667   0.750000000

     Writing output data file pw.save/
     NEW-OLD atomic charge density approx. for the potential
     extrapolated charge   23.78082, renormalised to   24.00000

[...]

     enthalpy old            =   -1392.4339595015 Ry
     enthalpy new            =   -1392.4342047722 Ry

     CASE: enthalpy_new < enthalpy_old

[...]

     Threshold (ethr) on eigenvalues was too large:
     Diagonalizing with lowered threshold

     Davidson diagonalization with overlap
     ethr =  6.46E-09,  avg # of iterations =  1.2

[...]

     number of scf cycles    =   6
     number of bfgs steps    =   5

     enthalpy old            =   -1392.4342659758 Ry
     enthalpy new            =   -1392.4342667804 Ry

     CASE: enthalpy_new < enthalpy_old

     new trust radius        =       0.0009374159 bohr
     new conv_thr            =       0.0000000100 Ry

     new unit-cell volume =    298.71134 a.u.^3 (    44.26445 Ang^3 )
     density =     13.39177 g/cm^3

[...]

ATOMIC_POSITIONS (crystal)
Hf       0.666666667   0.333333333   0.250000000
Hf       0.333333333   0.666666667   0.750000000

     Writing output data file pw.save/
     NEW-OLD atomic charge density approx. for the potential
     extrapolated charge   23.99716, renormalised to   24.00000

[...]

     Threshold (ethr) on eigenvalues was too large:
     Diagonalizing with lowered threshold

     Davidson diagonalization with overlap
     ethr =  7.36E-10,  avg # of iterations =  2.8

[...]

Begin final coordinates
     new unit-cell volume =    298.71134 a.u.^3 (    44.26445 Ang^3 )
     density =     13.39177 g/cm^3

[...]

ATOMIC_POSITIONS (crystal)
Hf       0.666666667   0.333333333   0.250000000
Hf       0.333333333   0.666666667   0.750000000
End final coordinates

     Writing output data file pw.save/

     lsda relaxation :  a final configuration with zero
                        absolute magnetization has been found

     the program is checking if it is really the minimum energy structure
     by performing a new scf iteration without any "electronic" history

[...]

     starting charge   23.99612, renormalised to   24.00000

     negative rho (up, down):  0.000E+00 9.766E-04

[...]

     bfgs converged in   7 scf cycles and   6 bfgs steps
     (criteria: energy <  1.0E-04 Ry, force <  1.0E-03Ry/Bohr, cell <  5.0E-01kbar)

     End of BFGS Geometry Optimization

     Final enthalpy =   -1392.4342669571 Ry
Begin final coordinates
     new unit-cell volume =    298.71134 a.u.^3 (    44.26445 Ang^3 )
     density =     13.39177 g/cm^3

CELL_PARAMETERS (alat=  6.04427014)
   0.996074610  -0.000000000   0.000000000
  -0.498037305   0.862625916  -0.000000000
   0.000000000   0.000000000   1.574366123

ATOMIC_POSITIONS (crystal)
Hf       0.666666667   0.333333333   0.250000000
Hf       0.333333333   0.666666667   0.750000000
End final coordinates

[...]

     A final scf calculation at the relaxed structure.
     The G-vectors are recalculated for the final unit cell
     Results may differ from those at the preceding step.

     bravais-lattice index     =            0
     lattice parameter (alat)  =       6.0443  a.u.
     unit-cell volume          =     298.7113 (a.u.)^3
     number of atoms/cell      =            2
     number of atomic types    =            1
     number of electrons       =        24.00
     number of Kohn-Sham states=           16
     kinetic-energy cutoff     =      46.0000  Ry
     charge density cutoff     =     264.0000  Ry
     convergence threshold     =      1.0E-08
     mixing beta               =       0.7000
     number of iterations used =            8  plain     mixing
     Exchange-correlation      = SLA PW PBX PBC ( 1  4  3  4 0 0)

     celldm(1)=   6.044270  celldm(2)=   0.000000  celldm(3)=   0.000000
     celldm(4)=   0.000000  celldm(5)=   0.000000  celldm(6)=   0.000000

     crystal axes: (cart. coord. in units of alat)
               a(1) = (   0.996075  -0.000000   0.000000 )
               a(2) = (  -0.498037   0.862626  -0.000000 )
               a(3) = (   0.000000   0.000000   1.574366 )

     reciprocal axes: (cart. coord. in units 2 pi/alat)
               b(1) = (  1.003941  0.579626 -0.000000 )
               b(2) = (  0.000000  1.159251 -0.000000 )
               b(3) = ( -0.000000 -0.000000  0.635176 )

     PseudoPot. # 1 for Hf read from file:
     ./potentials/Hf.pbe-spn-kjpaw_psl.1.0.0.UPF
     MD5 check sum: bf8a91e620b6303fe4cf956cf37905ef
     Pseudo is Projector augmented-wave + core cor, Zval = 12.0
     Generated using "atomic" code by A. Dal Corso v.6.2.2
     Shape of augmentation charge: PSQ
     Using radial grid of 1271 points,  6 beta functions with:
                l(1) =   0
                l(2) =   0
                l(3) =   1
                l(4) =   1
                l(5) =   2
                l(6) =   2
     Q(r) pseudized with 0 coefficients

     atomic species   valence    mass     pseudopotential
        Hf            12.00   178.49000     Hf( 1.00)

     Starting magnetic structure
     atomic species   magnetization
        Hf          -0.000

     24 Sym. Ops., with inversion, found (12 have fractional translation)

   Cartesian axes

     site n.     atom                  positions (alat units)
         1           Hf  tau(   1) = (   0.4980373   0.2875420   0.3935915  )
         2           Hf  tau(   2) = (  -0.0000000   0.5750839   1.1807746  )

     number of k points=    90  Methfessel-Paxton smearing, width (Ry)=  0.0200
                       cart. coord. in units 2pi/alat
        k(    1) = (   0.0501970   0.0869438   0.0529314), wk =   0.0066667
        k(    2) = (   0.0501970   0.0869438   0.1587941), wk =   0.0066667
        k(    3) = (   0.0501970   0.0869438   0.2646568), wk =   0.0066667
        k(    4) = (   0.0501970   0.2028689   0.0529314), wk =   0.0133333
        k(    5) = (   0.0501970   0.2028689   0.1587941), wk =   0.0133333
        k(    6) = (   0.0501970   0.2028689   0.2646568), wk =   0.0133333
        k(    7) = (   0.0501970   0.3187940   0.0529314), wk =   0.0133333
        k(    8) = (   0.0501970   0.3187940   0.1587941), wk =   0.0133333
        k(    9) = (   0.0501970   0.3187940   0.2646568), wk =   0.0133333
        k(   10) = (   0.0501970   0.4347191   0.0529314), wk =   0.0133333
        k(   11) = (   0.0501970   0.4347191   0.1587941), wk =   0.0133333
        k(   12) = (   0.0501970   0.4347191   0.2646568), wk =   0.0133333
        k(   13) = (   0.0501970   0.5506442   0.0529314), wk =   0.0133333
        k(   14) = (   0.0501970   0.5506442   0.1587941), wk =   0.0133333
        k(   15) = (   0.0501970   0.5506442   0.2646568), wk =   0.0133333
        k(   16) = (   0.0501970  -0.4926817   0.0529314), wk =   0.0133333
        k(   17) = (   0.0501970  -0.4926817   0.1587941), wk =   0.0133333
        k(   18) = (   0.0501970  -0.4926817   0.2646568), wk =   0.0133333
        k(   19) = (   0.0501970  -0.3767566   0.0529314), wk =   0.0133333
        k(   20) = (   0.0501970  -0.3767566   0.1587941), wk =   0.0133333
        k(   21) = (   0.0501970  -0.3767566   0.2646568), wk =   0.0133333
        k(   22) = (   0.0501970  -0.2608315   0.0529314), wk =   0.0133333
        k(   23) = (   0.0501970  -0.2608315   0.1587941), wk =   0.0133333
        k(   24) = (   0.0501970  -0.2608315   0.2646568), wk =   0.0133333
        k(   25) = (   0.0501970  -0.1449064   0.0529314), wk =   0.0133333
        k(   26) = (   0.0501970  -0.1449064   0.1587941), wk =   0.0133333
        k(   27) = (   0.0501970  -0.1449064   0.2646568), wk =   0.0133333
        k(   28) = (   0.0501970  -0.0289813   0.0529314), wk =   0.0066667
        k(   29) = (   0.0501970  -0.0289813   0.1587941), wk =   0.0066667
        k(   30) = (   0.0501970  -0.0289813   0.2646568), wk =   0.0066667
        k(   31) = (   0.1505911   0.2608315   0.0529314), wk =   0.0066667
        k(   32) = (   0.1505911   0.2608315   0.1587941), wk =   0.0066667
        k(   33) = (   0.1505911   0.2608315   0.2646568), wk =   0.0066667
        k(   34) = (   0.1505911   0.3767566   0.0529314), wk =   0.0133333
        k(   35) = (   0.1505911   0.3767566   0.1587941), wk =   0.0133333
        k(   36) = (   0.1505911   0.3767566   0.2646568), wk =   0.0133333
        k(   37) = (   0.1505911   0.4926817   0.0529314), wk =   0.0133333
        k(   38) = (   0.1505911   0.4926817   0.1587941), wk =   0.0133333
        k(   39) = (   0.1505911   0.4926817   0.2646568), wk =   0.0133333
        k(   40) = (   0.1505911   0.6086068   0.0529314), wk =   0.0133333
        k(   41) = (   0.1505911   0.6086068   0.1587941), wk =   0.0133333
        k(   42) = (   0.1505911   0.6086068   0.2646568), wk =   0.0133333
        k(   43) = (   0.1505911  -0.4347191   0.0529314), wk =   0.0133333
        k(   44) = (   0.1505911  -0.4347191   0.1587941), wk =   0.0133333
        k(   45) = (   0.1505911  -0.4347191   0.2646568), wk =   0.0133333
        k(   46) = (   0.1505911  -0.3187940   0.0529314), wk =   0.0133333
        k(   47) = (   0.1505911  -0.3187940   0.1587941), wk =   0.0133333
        k(   48) = (   0.1505911  -0.3187940   0.2646568), wk =   0.0133333
        k(   49) = (   0.1505911  -0.2028689   0.0529314), wk =   0.0133333
        k(   50) = (   0.1505911  -0.2028689   0.1587941), wk =   0.0133333
        k(   51) = (   0.1505911  -0.2028689   0.2646568), wk =   0.0133333
        k(   52) = (   0.1505911  -0.0869438   0.0529314), wk =   0.0066667
        k(   53) = (   0.1505911  -0.0869438   0.1587941), wk =   0.0066667
        k(   54) = (   0.1505911  -0.0869438   0.2646568), wk =   0.0066667
        k(   55) = (   0.2509852   0.4347191   0.0529314), wk =   0.0066667
        k(   56) = (   0.2509852   0.4347191   0.1587941), wk =   0.0066667
        k(   57) = (   0.2509852   0.4347191   0.2646568), wk =   0.0066667
        k(   58) = (   0.2509852   0.5506442   0.0529314), wk =   0.0133333
        k(   59) = (   0.2509852   0.5506442   0.1587941), wk =   0.0133333
        k(   60) = (   0.2509852   0.5506442   0.2646568), wk =   0.0133333
[...]
        k(   76) = (   0.3513793   0.7245319   0.0529314), wk =   0.0133333
        k(   77) = (   0.3513793   0.7245319   0.1587941), wk =   0.0133333
        k(   78) = (   0.3513793   0.7245319   0.2646568), wk =   0.0133333
        k(   79) = (   0.3513793  -0.3187940   0.0529314), wk =   0.0133333
        k(   80) = (   0.3513793  -0.3187940   0.1587941), wk =   0.0133333
        k(   81) = (   0.3513793  -0.3187940   0.2646568), wk =   0.0133333
        k(   82) = (   0.3513793  -0.2028689   0.0529314), wk =   0.0066667
        k(   83) = (   0.3513793  -0.2028689   0.1587941), wk =   0.0066667
        k(   84) = (   0.3513793  -0.2028689   0.2646568), wk =   0.0066667
        k(   85) = (   0.4517734   0.7824945   0.0529314), wk =   0.0066667
        k(   86) = (   0.4517734   0.7824945   0.1587941), wk =   0.0066667
        k(   87) = (   0.4517734   0.7824945   0.2646568), wk =   0.0066667
        k(   88) = (   0.4517734  -0.2608315   0.0529314), wk =   0.0066667
        k(   89) = (   0.4517734  -0.2608315   0.1587941), wk =   0.0066667
        k(   90) = (   0.4517734  -0.2608315   0.2646568), wk =   0.0066667

     Initial potential from superposition of free atoms

     starting charge   23.99612, renormalised to   24.00000
     Starting wfcs are   20 randomized atomic wfcs
     Checking if some PAW data can be deallocated...

     Self-consistent Calculation

[...]

     total energy              =   -1392.43390463 Ry
     Harris-Foulkes estimate   =   -1392.43390462 Ry
     estimated scf accuracy    <       0.00000002 Ry

[...]

     iteration #  6     ecut=    46.00 Ry     beta= 0.70
     Davidson diagonalization with overlap
     ethr =  9.64E-11,  avg # of iterations =  2.1

     Magnetic moment per site:
     atom:    1    charge:   10.1986    magn:   -0.0000    constr:    0.0000
     atom:    2    charge:   10.1986    magn:   -0.0000    constr:    0.0000

     End of self-consistent calculation

     Number of k-points >= 100: set verbosity='high' to print the bands.

     the Fermi energy is    14.8310 ev

!    total energy              =   -1392.43390463 Ry
     Harris-Foulkes estimate   =   -1392.43390463 Ry
     estimated scf accuracy    <          1.4E-09 Ry

     total all-electron energy =    -60313.958275 Ry

     The total energy is the sum of the following terms:

     one-electron contribution =     -32.21060808 Ry
     hartree contribution      =      27.83955096 Ry
     xc contribution           =     -82.88025874 Ry
     ewald contribution        =    -156.74926098 Ry
     one-center paw contrib.   =   -1148.43380202 Ry
     smearing contrib. (-TS)   =       0.00047424 Ry

     total magnetization       =    -0.00 Bohr mag/cell
     absolute magnetization    =     0.00 Bohr mag/cell

     convergence has been achieved in   6 iterations

     Forces acting on atoms (cartesian axes, Ry/au):

     atom    1 type  1   force =     0.00000000    0.00000000    0.00000000
     atom    2 type  1   force =     0.00000000    0.00000000    0.00000000

     Total force =     0.000000     Total SCF correction =     0.000000

     Computing stress (Cartesian axis) and pressure

          total   stress  (Ry/bohr**3)                   (kbar)     P=   -0.72
  -0.00000433   0.00000000  -0.00000000         -0.64      0.00     -0.00
   0.00000000  -0.00000433   0.00000000          0.00     -0.64      0.00
  -0.00000000   0.00000000  -0.00000598         -0.00      0.00     -0.88

     Writing output data file pw.save/

     General routines

     Parallel routines

   This run was terminated on:   7: 7:23   7Nov2020

   JOB DONE.