     Program PWSCF v.6.4.1 starts on  7Nov2020 at  7:15:16

     R & G space division:  proc/nbgrp/npool/nimage =       2
     Waiting for input...
     Reading input from standard input

     Current dimensions of program PWSCF are:
     Max number of different atomic species (ntypx) = 10
     Max number of k-points (npk) =  40000
     Max angular momentum in pseudopotentials (lmaxx) =  3
               file Ho.pbe-spdn-kjpaw_psl.1.0.0.UPF: wavefunction(s)  5P renormalized

     Subspace diagonalization in iterative solution of the eigenvalue problem:
     a serial algorithm will be used

     Message from routine setup:
     DEPRECATED: symmetry with ibrav=0, use correct ibrav instead

     bravais-lattice index     =            0
     lattice parameter (alat)  =       6.7601  a.u.
     unit-cell volume          =     420.0003 (a.u.)^3
     number of atoms/cell      =            2
     number of atomic types    =            1
     number of electrons       =        22.00
     number of Kohn-Sham states=           15
     kinetic-energy cutoff     =      36.0000  Ry
     charge density cutoff     =     268.0000  Ry
     convergence threshold     =      1.0E-06
     mixing beta               =       0.7000
     number of iterations used =            8  plain     mixing
     Exchange-correlation      = SLA PW PBX PBC ( 1  4  3  4 0 0)
     nstep                     =           50

     celldm(1)=   6.760117  celldm(2)=   0.000000  celldm(3)=   0.000000
     celldm(4)=   0.000000  celldm(5)=   0.000000  celldm(6)=   0.000000

     crystal axes: (cart. coord. in units of alat)
               a(1) = (   1.000000   0.000000   0.000000 )
               a(2) = (  -0.500000   0.866025   0.000000 )
               a(3) = (   0.000000   0.000000   1.569843 )

     reciprocal axes: (cart. coord. in units 2 pi/alat)
               b(1) = (  1.000000  0.577350 -0.000000 )
               b(2) = (  0.000000  1.154701  0.000000 )
               b(3) = (  0.000000 -0.000000  0.637006 )

     PseudoPot. # 1 for Ho read from file:
     ./potentials/Ho.pbe-spdn-kjpaw_psl.1.0.0.UPF
     MD5 check sum: d64e728444d4326ccf4ed99f7fda1943
     Pseudo is Projector augmented-wave + core cor, Zval = 11.0
     Generated using "atomic" code by A. Dal Corso v.6.2.2
     Shape of augmentation charge: PSQ
     Using radial grid of 1265 points,  6 beta functions with:
                l(1) =   0
                l(2) =   0
                l(3) =   1
                l(4) =   1
                l(5) =   2
                l(6) =   2
     Q(r) pseudized with 0 coefficients

     atomic species   valence    mass     pseudopotential
        Ho            11.00   164.93000     Ho( 1.00)

     Starting magnetic structure
     atomic species   magnetization
        Ho           1.000

     24 Sym. Ops., with inversion, found (12 have fractional translation)

   Cartesian axes

     site n.     atom                  positions (alat units)
         1           Ho  tau(   1) = (   0.5000000   0.2886751   1.1773824  )
         2           Ho  tau(   2) = (  -0.0000000   0.5773503   0.3924608  )

     number of k points=    90  Methfessel-Paxton smearing, width (Ry)=  0.0200
                       cart. coord. in units 2pi/alat
        k(    1) = (   0.0500000   0.0866025   0.0530839), wk =   0.0066667
        k(    2) = (   0.0500000   0.0866025   0.1592516), wk =   0.0066667
        k(    3) = (   0.0500000   0.0866025   0.2654193), wk =   0.0066667
        k(    4) = (   0.0500000   0.2020726   0.0530839), wk =   0.0133333
        k(    5) = (   0.0500000   0.2020726   0.1592516), wk =   0.0133333
        k(    6) = (   0.0500000   0.2020726   0.2654193), wk =   0.0133333
        k(    7) = (   0.0500000   0.3175426   0.0530839), wk =   0.0133333
        k(    8) = (   0.0500000   0.3175426   0.1592516), wk =   0.0133333
        k(    9) = (   0.0500000   0.3175426   0.2654193), wk =   0.0133333
        k(   10) = (   0.0500000   0.4330127   0.0530839), wk =   0.0133333
        k(   11) = (   0.0500000   0.4330127   0.1592516), wk =   0.0133333
        k(   12) = (   0.0500000   0.4330127   0.2654193), wk =   0.0133333
        k(   13) = (   0.0500000   0.5484828   0.0530839), wk =   0.0133333
        k(   14) = (   0.0500000   0.5484828   0.1592516), wk =   0.0133333
        k(   15) = (   0.0500000   0.5484828   0.2654193), wk =   0.0133333
        k(   16) = (   0.0500000  -0.4907477   0.0530839), wk =   0.0133333
        k(   17) = (   0.0500000  -0.4907477   0.1592516), wk =   0.0133333
        k(   18) = (   0.0500000  -0.4907477   0.2654193), wk =   0.0133333
        k(   19) = (   0.0500000  -0.3752777   0.0530839), wk =   0.0133333
        k(   20) = (   0.0500000  -0.3752777   0.1592516), wk =   0.0133333
        k(   21) = (   0.0500000  -0.3752777   0.2654193), wk =   0.0133333
        k(   22) = (   0.0500000  -0.2598076   0.0530839), wk =   0.0133333
        k(   23) = (   0.0500000  -0.2598076   0.1592516), wk =   0.0133333
        k(   24) = (   0.0500000  -0.2598076   0.2654193), wk =   0.0133333
        k(   25) = (   0.0500000  -0.1443376   0.0530839), wk =   0.0133333
        k(   26) = (   0.0500000  -0.1443376   0.1592516), wk =   0.0133333
        k(   27) = (   0.0500000  -0.1443376   0.2654193), wk =   0.0133333
        k(   28) = (   0.0500000  -0.0288675   0.0530839), wk =   0.0066667
        k(   29) = (   0.0500000  -0.0288675   0.1592516), wk =   0.0066667
        k(   30) = (   0.0500000  -0.0288675   0.2654193), wk =   0.0066667
        k(   31) = (   0.1500000   0.2598076   0.0530839), wk =   0.0066667
        k(   32) = (   0.1500000   0.2598076   0.1592516), wk =   0.0066667
        k(   33) = (   0.1500000   0.2598076   0.2654193), wk =   0.0066667
        k(   34) = (   0.1500000   0.3752777   0.0530839), wk =   0.0133333
        k(   35) = (   0.1500000   0.3752777   0.1592516), wk =   0.0133333
        k(   36) = (   0.1500000   0.3752777   0.2654193), wk =   0.0133333
        k(   37) = (   0.1500000   0.4907477   0.0530839), wk =   0.0133333
        k(   38) = (   0.1500000   0.4907477   0.1592516), wk =   0.0133333
        k(   39) = (   0.1500000   0.4907477   0.2654193), wk =   0.0133333
        k(   40) = (   0.1500000   0.6062178   0.0530839), wk =   0.0133333
        k(   41) = (   0.1500000   0.6062178   0.1592516), wk =   0.0133333
        k(   42) = (   0.1500000   0.6062178   0.2654193), wk =   0.0133333
        k(   43) = (   0.1500000  -0.4330127   0.0530839), wk =   0.0133333
        k(   44) = (   0.1500000  -0.4330127   0.1592516), wk =   0.0133333
        k(   45) = (   0.1500000  -0.4330127   0.2654193), wk =   0.0133333
        k(   46) = (   0.1500000  -0.3175426   0.0530839), wk =   0.0133333
        k(   47) = (   0.1500000  -0.3175426   0.1592516), wk =   0.0133333
        k(   48) = (   0.1500000  -0.3175426   0.2654193), wk =   0.0133333
        k(   49) = (   0.1500000  -0.2020726   0.0530839), wk =   0.0133333
        k(   50) = (   0.1500000  -0.2020726   0.1592516), wk =   0.0133333
        k(   51) = (   0.1500000  -0.2020726   0.2654193), wk =   0.0133333
        k(   52) = (   0.1500000  -0.0866025   0.0530839), wk =   0.0066667
        k(   53) = (   0.1500000  -0.0866025   0.1592516), wk =   0.0066667
        k(   54) = (   0.1500000  -0.0866025   0.2654193), wk =   0.0066667
        k(   55) = (   0.2500000   0.4330127   0.0530839), wk =   0.0066667
        k(   56) = (   0.2500000   0.4330127   0.1592516), wk =   0.0066667
        k(   57) = (   0.2500000   0.4330127   0.2654193), wk =   0.0066667
        k(   58) = (   0.2500000   0.5484828   0.0530839), wk =   0.0133333
        k(   59) = (   0.2500000   0.5484828   0.1592516), wk =   0.0133333
        k(   60) = (   0.2500000   0.5484828   0.2654193), wk =   0.0133333
[...]
        k(   76) = (   0.3500000   0.7216878   0.0530839), wk =   0.0133333
        k(   77) = (   0.3500000   0.7216878   0.1592516), wk =   0.0133333
        k(   78) = (   0.3500000   0.7216878   0.2654193), wk =   0.0133333
        k(   79) = (   0.3500000  -0.3175426   0.0530839), wk =   0.0133333
        k(   80) = (   0.3500000  -0.3175426   0.1592516), wk =   0.0133333
        k(   81) = (   0.3500000  -0.3175426   0.2654193), wk =   0.0133333
        k(   82) = (   0.3500000  -0.2020726   0.0530839), wk =   0.0066667
        k(   83) = (   0.3500000  -0.2020726   0.1592516), wk =   0.0066667
        k(   84) = (   0.3500000  -0.2020726   0.2654193), wk =   0.0066667
        k(   85) = (   0.4500000   0.7794229   0.0530839), wk =   0.0066667
        k(   86) = (   0.4500000   0.7794229   0.1592516), wk =   0.0066667
        k(   87) = (   0.4500000   0.7794229   0.2654193), wk =   0.0066667
        k(   88) = (   0.4500000  -0.2598076   0.0530839), wk =   0.0066667
        k(   89) = (   0.4500000  -0.2598076   0.1592516), wk =   0.0066667
        k(   90) = (   0.4500000  -0.2598076   0.2654193), wk =   0.0066667

     Initial potential from superposition of free atoms

     starting charge   21.95898, renormalised to   22.00000

     negative rho (up, down):  0.000E+00 8.230E-04
     Starting wfcs are   26 randomized atomic wfcs
     Checking if some PAW data can be deallocated...

     Self-consistent Calculation

     iteration #  1     ecut=    36.00 Ry     beta= 0.70
     Davidson diagonalization with overlap
     ethr =  1.00E-02,  avg # of iterations =  1.9

     total energy              =   -1205.25005410 Ry
     Harris-Foulkes estimate   =   -1203.40475443 Ry
     estimated scf accuracy    <       1.30452206 Ry

     total magnetization       =     4.36 Bohr mag/cell
     absolute magnetization    =     4.36 Bohr mag/cell

[...]

     Magnetic moment per site:
     atom:    1    charge:    9.4947    magn:    0.0549    constr:    0.0000
     atom:    2    charge:    9.4947    magn:    0.0549    constr:    0.0000

     End of self-consistent calculation

     Number of k-points >= 100: set verbosity='high' to print the bands.

     the Fermi energy is    10.2755 ev

!    total energy              =   -1205.61866935 Ry
     Harris-Foulkes estimate   =   -1205.61866275 Ry
     estimated scf accuracy    <       0.00000056 Ry

     total all-electron energy =    -50465.391496 Ry

     The total energy is the sum of the following terms:

     one-electron contribution =     -32.47504748 Ry
     hartree contribution      =      24.33643139 Ry
     xc contribution           =    -116.11749281 Ry
     ewald contribution        =    -117.56184842 Ry
     one-center paw contrib.   =    -963.79964737 Ry
     smearing contrib. (-TS)   =      -0.00106467 Ry

[...]

     convergence has been achieved in   9 iterations

     Forces acting on atoms (cartesian axes, Ry/au):

     atom    1 type  1   force =    -0.00000000   -0.00000000    0.00000000
     atom    2 type  1   force =     0.00000000    0.00000000    0.00000000

     Total force =     0.000000     Total SCF correction =     0.000000

     Computing stress (Cartesian axis) and pressure

          total   stress  (Ry/bohr**3)                   (kbar)     P=    1.74
   0.00002120   0.00000000  -0.00000000          3.12      0.00     -0.00
   0.00000000   0.00002120  -0.00000000          0.00      3.12     -0.00
   0.00000000  -0.00000000  -0.00000688          0.00     -0.00     -1.01

     BFGS Geometry Optimization

     number of scf cycles    =   1
     number of bfgs steps    =   0

     enthalpy new            =   -1205.6186693518 Ry

     new trust radius        =       0.0021727633 bohr
     new conv_thr            =       0.0000010000 Ry

     new unit-cell volume =    420.37342 a.u.^3 (    62.29291 Ang^3 )
     density =      8.79306 g/cm^3

CELL_PARAMETERS (alat=  6.76011730)
   1.000530100   0.000000000   0.000000000
  -0.500265050   0.866484484  -0.000000000
  -0.000000000  -0.000000000   1.569573305

ATOMIC_POSITIONS (crystal)
Ho       0.666666667   0.333333333   0.750000000
Ho       0.333333333   0.666666667   0.250000000

     Writing output data file pw.save/
     NEW-OLD atomic charge density approx. for the potential
     extrapolated charge   22.01949, renormalised to   22.00000

[...]

     Threshold (ethr) on eigenvalues was too large:
     Diagonalizing with lowered threshold

     Davidson diagonalization with overlap
     ethr =  3.93E-08,  avg # of iterations =  1.1

[...]

     enthalpy old            =   -1205.6186693518 Ry
     enthalpy new            =   -1205.6187005389 Ry

     CASE: enthalpy_new < enthalpy_old

     WARNING: bfgs curvature condition failed, Theta= 0.905
     new trust radius        =       0.0032588648 bohr
     new conv_thr            =       0.0000000100 Ry

[...]

     number of scf cycles    =   7
     number of bfgs steps    =   6

     enthalpy old            =   -1205.6187646620 Ry
     enthalpy new            =   -1205.6187657122 Ry

     CASE: enthalpy_new < enthalpy_old

     new trust radius        =       0.0029874020 bohr
     new conv_thr            =       0.0000000100 Ry

     new unit-cell volume =    422.17795 a.u.^3 (    62.56032 Ang^3 )
     density =      8.75548 g/cm^3

[...]

ATOMIC_POSITIONS (crystal)
Ho       0.666666667   0.333333333   0.750000000
Ho       0.333333333   0.666666667   0.250000000

     Writing output data file pw.save/
     NEW-OLD atomic charge density approx. for the potential
     extrapolated charge   21.98444, renormalised to   22.00000

[...]

     Threshold (ethr) on eigenvalues was too large:
     Diagonalizing with lowered threshold

     Davidson diagonalization with overlap
     ethr =  2.39E-08,  avg # of iterations =  1.3

[...]

     bfgs converged in   8 scf cycles and   7 bfgs steps
     (criteria: energy <  1.0E-04 Ry, force <  1.0E-03Ry/Bohr, cell <  5.0E-01kbar)

     End of BFGS Geometry Optimization

     Final enthalpy =   -1205.6187668111 Ry
Begin final coordinates
     new unit-cell volume =    422.17795 a.u.^3 (    62.56032 Ang^3 )
     density =      8.75548 g/cm^3

CELL_PARAMETERS (alat=  6.76011730)
   1.004751642   0.000000000   0.000000000
  -0.502375821   0.870140447  -0.000000000
  -0.000000000  -0.000000000   1.563092840

ATOMIC_POSITIONS (crystal)
Ho       0.666666667   0.333333333   0.750000000
Ho       0.333333333   0.666666667   0.250000000
End final coordinates

     Writing output data file pw.save/

     A final scf calculation at the relaxed structure.
     The G-vectors are recalculated for the final unit cell
     Results may differ from those at the preceding step.

     bravais-lattice index     =            0
     lattice parameter (alat)  =       6.7601  a.u.
     unit-cell volume          =     422.1780 (a.u.)^3
     number of atoms/cell      =            2
     number of atomic types    =            1
     number of electrons       =        22.00
     number of Kohn-Sham states=           15
     kinetic-energy cutoff     =      36.0000  Ry
     charge density cutoff     =     268.0000  Ry
     convergence threshold     =      1.0E-08
     mixing beta               =       0.7000
     number of iterations used =            8  plain     mixing
     Exchange-correlation      = SLA PW PBX PBC ( 1  4  3  4 0 0)

     celldm(1)=   6.760117  celldm(2)=   0.000000  celldm(3)=   0.000000
     celldm(4)=   0.000000  celldm(5)=   0.000000  celldm(6)=   0.000000

     crystal axes: (cart. coord. in units of alat)
               a(1) = (   1.004752   0.000000   0.000000 )
               a(2) = (  -0.502376   0.870140  -0.000000 )
               a(3) = (  -0.000000  -0.000000   1.563093 )

     reciprocal axes: (cart. coord. in units 2 pi/alat)
               b(1) = (  0.995271  0.574620  0.000000 )
               b(2) = ( -0.000000  1.149240  0.000000 )
               b(3) = ( -0.000000  0.000000  0.639757 )

     PseudoPot. # 1 for Ho read from file:
     ./potentials/Ho.pbe-spdn-kjpaw_psl.1.0.0.UPF
     MD5 check sum: d64e728444d4326ccf4ed99f7fda1943
     Pseudo is Projector augmented-wave + core cor, Zval = 11.0
     Generated using "atomic" code by A. Dal Corso v.6.2.2
     Shape of augmentation charge: PSQ
     Using radial grid of 1265 points,  6 beta functions with:
                l(1) =   0
                l(2) =   0
                l(3) =   1
                l(4) =   1
                l(5) =   2
                l(6) =   2
     Q(r) pseudized with 0 coefficients

     atomic species   valence    mass     pseudopotential
        Ho            11.00   164.93000     Ho( 1.00)

     Starting magnetic structure
     atomic species   magnetization
        Ho          -0.000

     24 Sym. Ops., with inversion, found (12 have fractional translation)

   Cartesian axes

     site n.     atom                  positions (alat units)
         1           Ho  tau(   1) = (   0.5023758   0.2900468   1.1723196  )
         2           Ho  tau(   2) = (  -0.0000000   0.5800936   0.3907732  )

     number of k points=    90  Methfessel-Paxton smearing, width (Ry)=  0.0200
                       cart. coord. in units 2pi/alat
        k(    1) = (   0.0497635   0.0861930   0.0533131), wk =   0.0066667
        k(    2) = (   0.0497635   0.0861930   0.1599393), wk =   0.0066667
        k(    3) = (   0.0497635   0.0861930   0.2665655), wk =   0.0066667
        k(    4) = (   0.0497635   0.2011170   0.0533131), wk =   0.0133333
        k(    5) = (   0.0497635   0.2011170   0.1599393), wk =   0.0133333
        k(    6) = (   0.0497635   0.2011170   0.2665655), wk =   0.0133333
        k(    7) = (   0.0497635   0.3160409   0.0533131), wk =   0.0133333
        k(    8) = (   0.0497635   0.3160409   0.1599393), wk =   0.0133333
        k(    9) = (   0.0497635   0.3160409   0.2665655), wk =   0.0133333
        k(   10) = (   0.0497635   0.4309649   0.0533131), wk =   0.0133333
        k(   11) = (   0.0497635   0.4309649   0.1599393), wk =   0.0133333
        k(   12) = (   0.0497635   0.4309649   0.2665655), wk =   0.0133333
        k(   13) = (   0.0497635   0.5458889   0.0533131), wk =   0.0133333
        k(   14) = (   0.0497635   0.5458889   0.1599393), wk =   0.0133333
        k(   15) = (   0.0497635   0.5458889   0.2665655), wk =   0.0133333
        k(   16) = (   0.0497635  -0.4884269   0.0533131), wk =   0.0133333
        k(   17) = (   0.0497635  -0.4884269   0.1599393), wk =   0.0133333
        k(   18) = (   0.0497635  -0.4884269   0.2665655), wk =   0.0133333
        k(   19) = (   0.0497635  -0.3735029   0.0533131), wk =   0.0133333
        k(   20) = (   0.0497635  -0.3735029   0.1599393), wk =   0.0133333
        k(   21) = (   0.0497635  -0.3735029   0.2665655), wk =   0.0133333
        k(   22) = (   0.0497635  -0.2585789   0.0533131), wk =   0.0133333
        k(   23) = (   0.0497635  -0.2585789   0.1599393), wk =   0.0133333
        k(   24) = (   0.0497635  -0.2585789   0.2665655), wk =   0.0133333
        k(   25) = (   0.0497635  -0.1436550   0.0533131), wk =   0.0133333
        k(   26) = (   0.0497635  -0.1436550   0.1599393), wk =   0.0133333
        k(   27) = (   0.0497635  -0.1436550   0.2665655), wk =   0.0133333
        k(   28) = (   0.0497635  -0.0287310   0.0533131), wk =   0.0066667
        k(   29) = (   0.0497635  -0.0287310   0.1599393), wk =   0.0066667
        k(   30) = (   0.0497635  -0.0287310   0.2665655), wk =   0.0066667
        k(   31) = (   0.1492906   0.2585789   0.0533131), wk =   0.0066667
        k(   32) = (   0.1492906   0.2585789   0.1599393), wk =   0.0066667
        k(   33) = (   0.1492906   0.2585789   0.2665655), wk =   0.0066667
        k(   34) = (   0.1492906   0.3735029   0.0533131), wk =   0.0133333
        k(   35) = (   0.1492906   0.3735029   0.1599393), wk =   0.0133333
        k(   36) = (   0.1492906   0.3735029   0.2665655), wk =   0.0133333
        k(   37) = (   0.1492906   0.4884269   0.0533131), wk =   0.0133333
        k(   38) = (   0.1492906   0.4884269   0.1599393), wk =   0.0133333
        k(   39) = (   0.1492906   0.4884269   0.2665655), wk =   0.0133333
        k(   40) = (   0.1492906   0.6033509   0.0533131), wk =   0.0133333
        k(   41) = (   0.1492906   0.6033509   0.1599393), wk =   0.0133333
        k(   42) = (   0.1492906   0.6033509   0.2665655), wk =   0.0133333
        k(   43) = (   0.1492906  -0.4309649   0.0533131), wk =   0.0133333
        k(   44) = (   0.1492906  -0.4309649   0.1599393), wk =   0.0133333
        k(   45) = (   0.1492906  -0.4309649   0.2665655), wk =   0.0133333
        k(   46) = (   0.1492906  -0.3160409   0.0533131), wk =   0.0133333
        k(   47) = (   0.1492906  -0.3160409   0.1599393), wk =   0.0133333
        k(   48) = (   0.1492906  -0.3160409   0.2665655), wk =   0.0133333
        k(   49) = (   0.1492906  -0.2011170   0.0533131), wk =   0.0133333
        k(   50) = (   0.1492906  -0.2011170   0.1599393), wk =   0.0133333
        k(   51) = (   0.1492906  -0.2011170   0.2665655), wk =   0.0133333
        k(   52) = (   0.1492906  -0.0861930   0.0533131), wk =   0.0066667
        k(   53) = (   0.1492906  -0.0861930   0.1599393), wk =   0.0066667
        k(   54) = (   0.1492906  -0.0861930   0.2665655), wk =   0.0066667
        k(   55) = (   0.2488177   0.4309649   0.0533131), wk =   0.0066667
        k(   56) = (   0.2488177   0.4309649   0.1599393), wk =   0.0066667
        k(   57) = (   0.2488177   0.4309649   0.2665655), wk =   0.0066667
        k(   58) = (   0.2488177   0.5458889   0.0533131), wk =   0.0133333
        k(   59) = (   0.2488177   0.5458889   0.1599393), wk =   0.0133333
        k(   60) = (   0.2488177   0.5458889   0.2665655), wk =   0.0133333
[...]
        k(   76) = (   0.3483448   0.7182749   0.0533131), wk =   0.0133333
        k(   77) = (   0.3483448   0.7182749   0.1599393), wk =   0.0133333
        k(   78) = (   0.3483448   0.7182749   0.2665655), wk =   0.0133333
        k(   79) = (   0.3483448  -0.3160409   0.0533131), wk =   0.0133333
        k(   80) = (   0.3483448  -0.3160409   0.1599393), wk =   0.0133333
        k(   81) = (   0.3483448  -0.3160409   0.2665655), wk =   0.0133333
        k(   82) = (   0.3483448  -0.2011170   0.0533131), wk =   0.0066667
        k(   83) = (   0.3483448  -0.2011170   0.1599393), wk =   0.0066667
        k(   84) = (   0.3483448  -0.2011170   0.2665655), wk =   0.0066667
        k(   85) = (   0.4478719   0.7757368   0.0533131), wk =   0.0066667
        k(   86) = (   0.4478719   0.7757368   0.1599393), wk =   0.0066667
        k(   87) = (   0.4478719   0.7757368   0.2665655), wk =   0.0066667
        k(   88) = (   0.4478719  -0.2585789   0.0533131), wk =   0.0066667
        k(   89) = (   0.4478719  -0.2585789   0.1599393), wk =   0.0066667
        k(   90) = (   0.4478719  -0.2585789   0.2665655), wk =   0.0066667

     Initial potential from superposition of free atoms

     starting charge   21.95898, renormalised to   22.00000
     Starting wfcs are   26 randomized atomic wfcs
     Checking if some PAW data can be deallocated...

     Self-consistent Calculation

[...]

     total energy              =   -1205.61877266 Ry
     Harris-Foulkes estimate   =   -1205.61877268 Ry
     estimated scf accuracy    <       0.00000002 Ry

[...]

     iteration #  6     ecut=    36.00 Ry     beta= 0.70
     Davidson diagonalization with overlap
     ethr =  1.04E-10,  avg # of iterations =  2.3

     Magnetic moment per site:
     atom:    1    charge:    9.4876    magn:   -0.0000    constr:    0.0000
     atom:    2    charge:    9.4876    magn:   -0.0000    constr:    0.0000

     End of self-consistent calculation

     Number of k-points >= 100: set verbosity='high' to print the bands.

     the Fermi energy is    10.2085 ev

!    total energy              =   -1205.61877267 Ry
     Harris-Foulkes estimate   =   -1205.61877267 Ry
     estimated scf accuracy    <          2.4E-09 Ry

     total all-electron energy =    -50465.391599 Ry

     The total energy is the sum of the following terms:

     one-electron contribution =     -32.79287847 Ry
     hartree contribution      =      24.43166667 Ry
     xc contribution           =    -116.11017256 Ry
     ewald contribution        =    -117.34679739 Ry
     one-center paw contrib.   =    -963.79950079 Ry
     smearing contrib. (-TS)   =      -0.00109013 Ry

     total magnetization       =    -0.00 Bohr mag/cell
     absolute magnetization    =     0.00 Bohr mag/cell

     convergence has been achieved in   6 iterations

     Forces acting on atoms (cartesian axes, Ry/au):

     atom    1 type  1   force =    -0.00000000    0.00000000    0.00000000
     atom    2 type  1   force =     0.00000000   -0.00000000   -0.00000000

     Total force =     0.000000     Total SCF correction =     0.000000

     Computing stress (Cartesian axis) and pressure

          total   stress  (Ry/bohr**3)                   (kbar)     P=   -0.25
  -0.00000192   0.00000000  -0.00000000         -0.28      0.00     -0.00
   0.00000000  -0.00000192   0.00000000          0.00     -0.28      0.00
  -0.00000000  -0.00000000  -0.00000136         -0.00     -0.00     -0.20

     Writing output data file pw.save/

     General routines

     Parallel routines

   This run was terminated on:   7:27:47   7Nov2020

   JOB DONE.