     Program PWSCF v.6.4.1 starts on  6Nov2020 at 16:12:39

     R & G space division:  proc/nbgrp/npool/nimage =       2
     Waiting for input...
     Reading input from standard input

     Current dimensions of program PWSCF are:
     Max number of different atomic species (ntypx) = 10
     Max number of k-points (npk) =  40000
     Max angular momentum in pseudopotentials (lmaxx) =  3
               file Os.pbe-spn-kjpaw_psl.1.0.0.UPF: wavefunction(s)  5P 5D renormalized

     Subspace diagonalization in iterative solution of the eigenvalue problem:
     a serial algorithm will be used

     Message from routine setup:
     DEPRECATED: symmetry with ibrav=0, use correct ibrav instead

     bravais-lattice index     =            0
     lattice parameter (alat)  =       5.2128  a.u.
     unit-cell volume          =     193.7527 (a.u.)^3
     number of atoms/cell      =            2
     number of atomic types    =            1
     number of electrons       =        32.00
     number of Kohn-Sham states=           20
     kinetic-energy cutoff     =      54.0000  Ry
     charge density cutoff     =     268.0000  Ry
     convergence threshold     =      1.0E-06
     mixing beta               =       0.7000
     number of iterations used =            8  plain     mixing
     Exchange-correlation      = SLA PW PBX PBC ( 1  4  3  4 0 0)
     nstep                     =           50

     celldm(1)=   5.212847  celldm(2)=   0.000000  celldm(3)=   0.000000
     celldm(4)=   0.000000  celldm(5)=   0.000000  celldm(6)=   0.000000

     crystal axes: (cart. coord. in units of alat)
               a(1) = (   1.000000   0.000000   0.000000 )
               a(2) = (  -0.500000   0.866025   0.000000 )
               a(3) = (   0.000000   0.000000   1.579400 )

     reciprocal axes: (cart. coord. in units 2 pi/alat)
               b(1) = (  1.000000  0.577350 -0.000000 )
               b(2) = (  0.000000  1.154701  0.000000 )
               b(3) = (  0.000000 -0.000000  0.633152 )

     PseudoPot. # 1 for Os read from file:
     ./potentials/Os.pbe-spn-kjpaw_psl.1.0.0.UPF
     MD5 check sum: ffab0650846cf3eaca1d064964e03382
     Pseudo is Projector augmented-wave + core cor, Zval = 16.0
     Generated using "atomic" code by A. Dal Corso v.6.2.2
     Shape of augmentation charge: PSQ
     Using radial grid of 1275 points,  6 beta functions with:
                l(1) =   0
                l(2) =   0
                l(3) =   1
                l(4) =   1
                l(5) =   2
                l(6) =   2
     Q(r) pseudized with 0 coefficients

     atomic species   valence    mass     pseudopotential
        Os            16.00   190.23000     Os( 1.00)

     Starting magnetic structure
     atomic species   magnetization
        Os           1.000

     24 Sym. Ops., with inversion, found (12 have fractional translation)

   Cartesian axes

     site n.     atom                  positions (alat units)
         1           Os  tau(   1) = (   0.5000000   0.2886751   0.3948500  )
         2           Os  tau(   2) = (  -0.0000000   0.5773503   1.1845499  )

     number of k points=   126  Methfessel-Paxton smearing, width (Ry)=  0.0200

     Number of k-points >= 100: set verbosity='high' to print them.

     Initial potential from superposition of free atoms

     starting charge   31.99951, renormalised to   32.00000

     negative rho (up, down):  0.000E+00 4.110E-02
     Starting wfcs are   20 randomized atomic wfcs
     Checking if some PAW data can be deallocated...

     Self-consistent Calculation

     iteration #  1     ecut=    54.00 Ry     beta= 0.70
     Davidson diagonalization with overlap
     ethr =  1.00E-02,  avg # of iterations =  2.8

     total energy              =   -1665.70496953 Ry
     Harris-Foulkes estimate   =   -1662.07170118 Ry
     estimated scf accuracy    <       3.44342393 Ry

     total magnetization       =     7.17 Bohr mag/cell
     absolute magnetization    =     7.17 Bohr mag/cell

[...]

     Magnetic moment per site:
     atom:    1    charge:   13.6247    magn:    0.0007    constr:    0.0000
     atom:    2    charge:   13.6247    magn:    0.0007    constr:    0.0000

     End of self-consistent calculation

     Number of k-points >= 100: set verbosity='high' to print the bands.

     the Fermi energy is    25.5713 ev

!    total energy              =   -1666.87972987 Ry
     Harris-Foulkes estimate   =   -1666.87972974 Ry
     estimated scf accuracy    <       0.00000008 Ry

     total all-electron energy =    -69017.038024 Ry

     The total energy is the sum of the following terms:

     one-electron contribution =     -37.67002201 Ry
     hartree contribution      =      45.73752120 Ry
     xc contribution           =     -76.14072923 Ry
     ewald contribution        =    -321.92004154 Ry
     one-center paw contrib.   =   -1276.88631333 Ry
     smearing contrib. (-TS)   =      -0.00014497 Ry

[...]

     convergence has been achieved in   8 iterations

     Forces acting on atoms (cartesian axes, Ry/au):

     atom    1 type  1   force =     0.00000000    0.00000000    0.00000000
     atom    2 type  1   force =     0.00000000    0.00000000    0.00000000

     Total force =     0.000000     Total SCF correction =     0.000000

     Computing stress (Cartesian axis) and pressure

          total   stress  (Ry/bohr**3)                   (kbar)     P=  -36.80
  -0.00022028   0.00000000   0.00000000        -32.40      0.00      0.00
   0.00000000  -0.00022028   0.00000000          0.00    -32.40      0.00
   0.00000000  -0.00000000  -0.00030996          0.00     -0.00    -45.60

     BFGS Geometry Optimization

     number of scf cycles    =   1
     number of bfgs steps    =   0

     enthalpy new            =   -1666.8797298717 Ry

     new trust radius        =       0.0215721476 bohr
     new conv_thr            =       0.0000010000 Ry

     new unit-cell volume =    190.13966 a.u.^3 (    28.17579 Ang^3 )
     density =     22.42239 g/cm^3

CELL_PARAMETERS (alat=  5.21284733)
   0.994492918  -0.000000000  -0.000000000
  -0.497246459   0.861256131  -0.000000000
   0.000000000   0.000000000   1.567161208

ATOMIC_POSITIONS (crystal)
Os       0.666666667   0.333333333   0.250000000
Os       0.333333333   0.666666667   0.750000000

     Writing output data file pw.save/
     NEW-OLD atomic charge density approx. for the potential
     extrapolated charge   31.39195, renormalised to   32.00000

[...]

     enthalpy old            =   -1666.8797298717 Ry
     enthalpy new            =   -1666.8797210514 Ry

     CASE: enthalpy_new > enthalpy_old

[...]

     CASE: enthalpy_new < enthalpy_old

[...]

     Threshold (ethr) on eigenvalues was too large:
     Diagonalizing with lowered threshold

     Davidson diagonalization with overlap
     ethr =  2.49E-08,  avg # of iterations =  1.7

[...]

     number of scf cycles    =   4
     number of bfgs steps    =   2

     enthalpy old            =   -1666.8799683026 Ry
     enthalpy new            =   -1666.8799704033 Ry

     CASE: enthalpy_new < enthalpy_old

     new trust radius        =       0.0003080014 bohr
     new conv_thr            =       0.0000000100 Ry

     new unit-cell volume =    191.97731 a.u.^3 (    28.44810 Ang^3 )
     density =     22.20776 g/cm^3

[...]

ATOMIC_POSITIONS (crystal)
Os       0.666666667   0.333333333   0.250000000
Os       0.333333333   0.666666667   0.750000000

     Writing output data file pw.save/
     NEW-OLD atomic charge density approx. for the potential
     extrapolated charge   31.99291, renormalised to   32.00000

[...]

     Threshold (ethr) on eigenvalues was too large:
     Diagonalizing with lowered threshold

     Davidson diagonalization with overlap
     ethr =  9.53E-09,  avg # of iterations =  1.0

[...]

Begin final coordinates
     new unit-cell volume =    191.97731 a.u.^3 (    28.44810 Ang^3 )
     density =     22.20776 g/cm^3

[...]

ATOMIC_POSITIONS (crystal)
Os       0.666666667   0.333333333   0.250000000
Os       0.333333333   0.666666667   0.750000000
End final coordinates

     Writing output data file pw.save/

     lsda relaxation :  a final configuration with zero
                        absolute magnetization has been found

     the program is checking if it is really the minimum energy structure
     by performing a new scf iteration without any "electronic" history

[...]

     starting charge   31.99951, renormalised to   32.00000

     negative rho (up, down):  0.000E+00 3.664E-02

[...]

     bfgs converged in   5 scf cycles and   3 bfgs steps
     (criteria: energy <  1.0E-04 Ry, force <  1.0E-03Ry/Bohr, cell <  5.0E-01kbar)

     End of BFGS Geometry Optimization

     Final enthalpy =   -1666.8799705497 Ry
Begin final coordinates
     new unit-cell volume =    191.97731 a.u.^3 (    28.44810 Ang^3 )
     density =     22.20776 g/cm^3

CELL_PARAMETERS (alat=  5.21284733)
   0.997638603  -0.000000000   0.000000000
  -0.498819301   0.863980374   0.000000000
   0.000000000   0.000000000   1.572344723

ATOMIC_POSITIONS (crystal)
Os       0.666666667   0.333333333   0.250000000
Os       0.333333333   0.666666667   0.750000000
End final coordinates

[...]

     A final scf calculation at the relaxed structure.
     The G-vectors are recalculated for the final unit cell
     Results may differ from those at the preceding step.

     bravais-lattice index     =            0
     lattice parameter (alat)  =       5.2128  a.u.
     unit-cell volume          =     191.9773 (a.u.)^3
     number of atoms/cell      =            2
     number of atomic types    =            1
     number of electrons       =        32.00
     number of Kohn-Sham states=           20
     kinetic-energy cutoff     =      54.0000  Ry
     charge density cutoff     =     268.0000  Ry
     convergence threshold     =      1.0E-08
     mixing beta               =       0.7000
     number of iterations used =            8  plain     mixing
     Exchange-correlation      = SLA PW PBX PBC ( 1  4  3  4 0 0)

     celldm(1)=   5.212847  celldm(2)=   0.000000  celldm(3)=   0.000000
     celldm(4)=   0.000000  celldm(5)=   0.000000  celldm(6)=   0.000000

     crystal axes: (cart. coord. in units of alat)
               a(1) = (   0.997639  -0.000000   0.000000 )
               a(2) = (  -0.498819   0.863980   0.000000 )
               a(3) = (   0.000000   0.000000   1.572345 )

     reciprocal axes: (cart. coord. in units 2 pi/alat)
               b(1) = (  1.002367  0.578717 -0.000000 )
               b(2) = (  0.000000  1.157434 -0.000000 )
               b(3) = ( -0.000000 -0.000000  0.635993 )

     PseudoPot. # 1 for Os read from file:
     ./potentials/Os.pbe-spn-kjpaw_psl.1.0.0.UPF
     MD5 check sum: ffab0650846cf3eaca1d064964e03382
     Pseudo is Projector augmented-wave + core cor, Zval = 16.0
     Generated using "atomic" code by A. Dal Corso v.6.2.2
     Shape of augmentation charge: PSQ
     Using radial grid of 1275 points,  6 beta functions with:
                l(1) =   0
                l(2) =   0
                l(3) =   1
                l(4) =   1
                l(5) =   2
                l(6) =   2
     Q(r) pseudized with 0 coefficients

     atomic species   valence    mass     pseudopotential
        Os            16.00   190.23000     Os( 1.00)

     Starting magnetic structure
     atomic species   magnetization
        Os          -0.000

     24 Sym. Ops., with inversion, found (12 have fractional translation)

   Cartesian axes

     site n.     atom                  positions (alat units)
         1           Os  tau(   1) = (   0.4988193   0.2879935   0.3930862  )
         2           Os  tau(   2) = (  -0.0000000   0.5759869   1.1792585  )

     number of k points=   126  Methfessel-Paxton smearing, width (Ry)=  0.0200

     Number of k-points >= 100: set verbosity='high' to print them.

     Initial potential from superposition of free atoms

     starting charge   31.99951, renormalised to   32.00000
     Starting wfcs are   20 randomized atomic wfcs
     Checking if some PAW data can be deallocated...

     Self-consistent Calculation

[...]

     total energy              =   -1666.87981047 Ry
     Harris-Foulkes estimate   =   -1666.87981045 Ry
     estimated scf accuracy    <       0.00000003 Ry

[...]

     iteration #  6     ecut=    54.00 Ry     beta= 0.70
     Davidson diagonalization with overlap
     ethr =  9.05E-11,  avg # of iterations =  2.0

     Magnetic moment per site:
     atom:    1    charge:   13.6433    magn:   -0.0000    constr:    0.0000
     atom:    2    charge:   13.6433    magn:   -0.0000    constr:    0.0000

     End of self-consistent calculation

     Number of k-points >= 100: set verbosity='high' to print the bands.

     the Fermi energy is    25.8578 ev

!    total energy              =   -1666.87981047 Ry
     Harris-Foulkes estimate   =   -1666.87981047 Ry
     estimated scf accuracy    <          4.8E-10 Ry

     total all-electron energy =    -69017.038104 Ry

     The total energy is the sum of the following terms:

     one-electron contribution =     -36.28150088 Ry
     hartree contribution      =      45.36211290 Ry
     xc contribution           =     -76.16906420 Ry
     ewald contribution        =    -322.90285129 Ry
     one-center paw contrib.   =   -1276.88836634 Ry
     smearing contrib. (-TS)   =      -0.00014067 Ry

     total magnetization       =    -0.00 Bohr mag/cell
     absolute magnetization    =     0.00 Bohr mag/cell

     convergence has been achieved in   6 iterations

     Forces acting on atoms (cartesian axes, Ry/au):

     atom    1 type  1   force =     0.00000000    0.00000000    0.00000000
     atom    2 type  1   force =     0.00000000    0.00000000    0.00000000

     Total force =     0.000000     Total SCF correction =     0.000000

     Computing stress (Cartesian axis) and pressure

          total   stress  (Ry/bohr**3)                   (kbar)     P=   -0.65
  -0.00000453  -0.00000000   0.00000000         -0.67     -0.00      0.00
  -0.00000000  -0.00000453  -0.00000000         -0.00     -0.67     -0.00
  -0.00000000   0.00000000  -0.00000413         -0.00      0.00     -0.61

     Writing output data file pw.save/

     General routines

     Parallel routines

   This run was terminated on:  16:28:43   6Nov2020

   JOB DONE.