     Program PWSCF v.6.4.1 starts on  6Nov2020 at 13:26:58

     R & G space division:  proc/nbgrp/npool/nimage =       2
     Waiting for input...
     Reading input from standard input

     Current dimensions of program PWSCF are:
     Max number of different atomic species (ntypx) = 10
     Max number of k-points (npk) =  40000
     Max angular momentum in pseudopotentials (lmaxx) =  3
               file Re.pbe-spn-kjpaw_psl.1.0.0.UPF: wavefunction(s)  5P 5D renormalized

     Subspace diagonalization in iterative solution of the eigenvalue problem:
     a serial algorithm will be used

     Message from routine setup:
     DEPRECATED: symmetry with ibrav=0, use correct ibrav instead

     bravais-lattice index     =            0
     lattice parameter (alat)  =       5.2554  a.u.
     unit-cell volume          =     203.2735 (a.u.)^3
     number of atoms/cell      =            2
     number of atomic types    =            1
     number of electrons       =        30.00
     number of Kohn-Sham states=           19
     kinetic-energy cutoff     =      51.0000  Ry
     charge density cutoff     =     274.0000  Ry
     convergence threshold     =      1.0E-06
     mixing beta               =       0.7000
     number of iterations used =            8  plain     mixing
     Exchange-correlation      = SLA PW PBX PBC ( 1  4  3  4 0 0)
     nstep                     =           50

     celldm(1)=   5.255423  celldm(2)=   0.000000  celldm(3)=   0.000000
     celldm(4)=   0.000000  celldm(5)=   0.000000  celldm(6)=   0.000000

     crystal axes: (cart. coord. in units of alat)
               a(1) = (   1.000000   0.000000   0.000000 )
               a(2) = (  -0.500000   0.866025   0.000000 )
               a(3) = (   0.000000   0.000000   1.617064 )

     reciprocal axes: (cart. coord. in units 2 pi/alat)
               b(1) = (  1.000000  0.577350 -0.000000 )
               b(2) = (  0.000000  1.154701  0.000000 )
               b(3) = (  0.000000 -0.000000  0.618405 )

     PseudoPot. # 1 for Re read from file:
     ./potentials/Re.pbe-spn-kjpaw_psl.1.0.0.UPF
     MD5 check sum: 6d708e36037b236d09c8061a1de8d29d
     Pseudo is Projector augmented-wave + core cor, Zval = 15.0
     Generated using "atomic" code by A. Dal Corso v.6.2.2
     Shape of augmentation charge: PSQ
     Using radial grid of 1275 points,  6 beta functions with:
                l(1) =   0
                l(2) =   0
                l(3) =   1
                l(4) =   1
                l(5) =   2
                l(6) =   2
     Q(r) pseudized with 0 coefficients

     atomic species   valence    mass     pseudopotential
        Re            15.00   186.20700     Re( 1.00)

     Starting magnetic structure
     atomic species   magnetization
        Re           1.000

     24 Sym. Ops., with inversion, found (12 have fractional translation)

   Cartesian axes

     site n.     atom                  positions (alat units)
         1           Re  tau(   1) = (   0.5000000   0.2886751   1.2127980  )
         2           Re  tau(   2) = (  -0.0000000   0.5773503   0.4042660  )

     number of k points=   126  Methfessel-Paxton smearing, width (Ry)=  0.0200

     Number of k-points >= 100: set verbosity='high' to print them.

     Initial potential from superposition of free atoms

     starting charge   29.99940, renormalised to   30.00000

     negative rho (up, down):  0.000E+00 1.280E-02
     Starting wfcs are   20 randomized atomic wfcs
     Checking if some PAW data can be deallocated...

     Self-consistent Calculation

     iteration #  1     ecut=    51.00 Ry     beta= 0.70
     Davidson diagonalization with overlap
     ethr =  1.00E-02,  avg # of iterations =  2.5

     total energy              =   -1590.12800589 Ry
     Harris-Foulkes estimate   =   -1587.19026773 Ry
     estimated scf accuracy    <       2.78966446 Ry

     total magnetization       =     7.40 Bohr mag/cell
     absolute magnetization    =     7.40 Bohr mag/cell

[...]

     Magnetic moment per site:
     atom:    1    charge:   12.7092    magn:    0.0002    constr:    0.0000
     atom:    2    charge:   12.7092    magn:    0.0002    constr:    0.0000

     End of self-consistent calculation

     Number of k-points >= 100: set verbosity='high' to print the bands.

     the Fermi energy is    23.5975 ev

!    total energy              =   -1591.26008375 Ry
     Harris-Foulkes estimate   =   -1591.26008354 Ry
     estimated scf accuracy    <       0.00000003 Ry

     total all-electron energy =    -66770.615788 Ry

     The total energy is the sum of the following terms:

     one-electron contribution =     -28.58024949 Ry
     hartree contribution      =      37.82078242 Ry
     xc contribution           =     -79.31426646 Ry
     ewald contribution        =    -278.49040778 Ry
     one-center paw contrib.   =   -1242.69628633 Ry
     smearing contrib. (-TS)   =       0.00034389 Ry

[...]

     convergence has been achieved in   8 iterations

     Forces acting on atoms (cartesian axes, Ry/au):

     atom    1 type  1   force =     0.00000000    0.00000000    0.00000000
     atom    2 type  1   force =    -0.00000000   -0.00000000    0.00000000

     Total force =     0.000000     Total SCF correction =     0.000000

     Computing stress (Cartesian axis) and pressure

          total   stress  (Ry/bohr**3)                   (kbar)     P=  -62.55
  -0.00039758  -0.00000000  -0.00000000        -58.49     -0.00     -0.00
  -0.00000000  -0.00039758   0.00000000         -0.00    -58.49      0.00
   0.00000000   0.00000000  -0.00048042          0.00      0.00    -70.67

     BFGS Geometry Optimization

     number of scf cycles    =   1
     number of bfgs steps    =   0

     enthalpy new            =   -1591.2600837481 Ry

     new trust radius        =       0.0342480467 bohr
     new conv_thr            =       0.0000010000 Ry

     new unit-cell volume =    196.85958 a.u.^3 (    29.17158 Ang^3 )
     density =     21.19899 g/cm^3

CELL_PARAMETERS (alat=  5.25542286)
   0.990060444  -0.000000000  -0.000000000
  -0.495030222   0.857417496   0.000000000
  -0.000000000   0.000000000   1.597642107

ATOMIC_POSITIONS (crystal)
Re       0.666666667   0.333333333   0.750000000
Re       0.333333333   0.666666667   0.250000000

     Writing output data file pw.save/
     NEW-OLD atomic charge density approx. for the potential
     extrapolated charge   29.02258, renormalised to   30.00000

[...]

     enthalpy old            =   -1591.2600837481 Ry
     enthalpy new            =   -1591.2602139302 Ry

     CASE: enthalpy_new < enthalpy_old

[...]

     number of scf cycles    =   3
     number of bfgs steps    =   2

     enthalpy old            =   -1591.2602139302 Ry
     enthalpy new            =   -1591.2608315064 Ry

     CASE: enthalpy_new < enthalpy_old

     new trust radius        =       0.0010545254 bohr
     new conv_thr            =       0.0000000100 Ry

     new unit-cell volume =    199.89273 a.u.^3 (    29.62105 Ang^3 )
     density =     20.87732 g/cm^3

[...]

ATOMIC_POSITIONS (crystal)
Re       0.666666667   0.333333333   0.750000000
Re       0.333333333   0.666666667   0.250000000

     Writing output data file pw.save/
     NEW-OLD atomic charge density approx. for the potential
     extrapolated charge   29.98462, renormalised to   30.00000

[...]

     Threshold (ethr) on eigenvalues was too large:
     Diagonalizing with lowered threshold

     Davidson diagonalization with overlap
     ethr =  3.62E-08,  avg # of iterations =  1.4

[...]

Begin final coordinates
     new unit-cell volume =    199.89273 a.u.^3 (    29.62105 Ang^3 )
     density =     20.87732 g/cm^3

[...]

ATOMIC_POSITIONS (crystal)
Re       0.666666667   0.333333333   0.750000000
Re       0.333333333   0.666666667   0.250000000
End final coordinates

     Writing output data file pw.save/

     lsda relaxation :  a final configuration with zero
                        absolute magnetization has been found

     the program is checking if it is really the minimum energy structure
     by performing a new scf iteration without any "electronic" history

[...]

     starting charge   29.99940, renormalised to   30.00000

     negative rho (up, down):  0.000E+00 7.659E-03

[...]

     bfgs converged in   4 scf cycles and   3 bfgs steps
     (criteria: energy <  1.0E-04 Ry, force <  1.0E-03Ry/Bohr, cell <  5.0E-01kbar)

     End of BFGS Geometry Optimization

     Final enthalpy =   -1591.2608325890 Ry
Begin final coordinates
     new unit-cell volume =    199.89273 a.u.^3 (    29.62105 Ang^3 )
     density =     20.87732 g/cm^3

CELL_PARAMETERS (alat=  5.25542286)
   0.995301681  -0.000000000   0.000000000
  -0.497650841   0.861956541  -0.000000000
   0.000000000   0.000000000   1.605217506

ATOMIC_POSITIONS (crystal)
Re       0.666666667   0.333333333   0.750000000
Re       0.333333333   0.666666667   0.250000000
End final coordinates

[...]

     A final scf calculation at the relaxed structure.
     The G-vectors are recalculated for the final unit cell
     Results may differ from those at the preceding step.

     bravais-lattice index     =            0
     lattice parameter (alat)  =       5.2554  a.u.
     unit-cell volume          =     199.8927 (a.u.)^3
     number of atoms/cell      =            2
     number of atomic types    =            1
     number of electrons       =        30.00
     number of Kohn-Sham states=           19
     kinetic-energy cutoff     =      51.0000  Ry
     charge density cutoff     =     274.0000  Ry
     convergence threshold     =      1.0E-08
     mixing beta               =       0.7000
     number of iterations used =            8  plain     mixing
     Exchange-correlation      = SLA PW PBX PBC ( 1  4  3  4 0 0)

     celldm(1)=   5.255423  celldm(2)=   0.000000  celldm(3)=   0.000000
     celldm(4)=   0.000000  celldm(5)=   0.000000  celldm(6)=   0.000000

     crystal axes: (cart. coord. in units of alat)
               a(1) = (   0.995302  -0.000000   0.000000 )
               a(2) = (  -0.497651   0.861957  -0.000000 )
               a(3) = (   0.000000   0.000000   1.605218 )

     reciprocal axes: (cart. coord. in units 2 pi/alat)
               b(1) = (  1.004720  0.580076 -0.000000 )
               b(2) = (  0.000000  1.160151 -0.000000 )
               b(3) = ( -0.000000  0.000000  0.622969 )

     PseudoPot. # 1 for Re read from file:
     ./potentials/Re.pbe-spn-kjpaw_psl.1.0.0.UPF
     MD5 check sum: 6d708e36037b236d09c8061a1de8d29d
     Pseudo is Projector augmented-wave + core cor, Zval = 15.0
     Generated using "atomic" code by A. Dal Corso v.6.2.2
     Shape of augmentation charge: PSQ
     Using radial grid of 1275 points,  6 beta functions with:
                l(1) =   0
                l(2) =   0
                l(3) =   1
                l(4) =   1
                l(5) =   2
                l(6) =   2
     Q(r) pseudized with 0 coefficients

     atomic species   valence    mass     pseudopotential
        Re            15.00   186.20700     Re( 1.00)

     Starting magnetic structure
     atomic species   magnetization
        Re           0.000

     24 Sym. Ops., with inversion, found (12 have fractional translation)

   Cartesian axes

     site n.     atom                  positions (alat units)
         1           Re  tau(   1) = (   0.4976508   0.2873188   1.2039131  )
         2           Re  tau(   2) = (  -0.0000000   0.5746377   0.4013044  )

     number of k points=   126  Methfessel-Paxton smearing, width (Ry)=  0.0200

     Number of k-points >= 100: set verbosity='high' to print them.

     Initial potential from superposition of free atoms

     starting charge   29.99940, renormalised to   30.00000
     Starting wfcs are   20 randomized atomic wfcs
     Checking if some PAW data can be deallocated...

     Self-consistent Calculation

[...]

     total energy              =   -1591.26029238 Ry
     Harris-Foulkes estimate   =   -1591.26029238 Ry
     estimated scf accuracy    <       0.00000003 Ry

[...]

     iteration #  6     ecut=    51.00 Ry     beta= 0.70
     Davidson diagonalization with overlap
     ethr =  8.86E-11,  avg # of iterations =  2.0

     Magnetic moment per site:
     atom:    1    charge:   12.7472    magn:   -0.0000    constr:    0.0000
     atom:    2    charge:   12.7472    magn:   -0.0000    constr:    0.0000

     End of self-consistent calculation

     Number of k-points >= 100: set verbosity='high' to print the bands.

     the Fermi energy is    24.0638 ev

!    total energy              =   -1591.26029238 Ry
     Harris-Foulkes estimate   =   -1591.26029238 Ry
     estimated scf accuracy    <          6.9E-10 Ry

     total all-electron energy =    -66770.615996 Ry

     The total energy is the sum of the following terms:

     one-electron contribution =     -26.40618126 Ry
     hartree contribution      =      37.26115577 Ry
     xc contribution           =     -79.36676991 Ry
     ewald contribution        =    -280.04908557 Ry
     one-center paw contrib.   =   -1242.69973559 Ry
     smearing contrib. (-TS)   =       0.00032418 Ry

     total magnetization       =    -0.00 Bohr mag/cell
     absolute magnetization    =     0.00 Bohr mag/cell

     convergence has been achieved in   6 iterations

     Forces acting on atoms (cartesian axes, Ry/au):

     atom    1 type  1   force =    -0.00000000   -0.00000000    0.00000000
     atom    2 type  1   force =     0.00000000    0.00000000   -0.00000000

     Total force =     0.000000     Total SCF correction =     0.000000

     Computing stress (Cartesian axis) and pressure

          total   stress  (Ry/bohr**3)                   (kbar)     P=   -2.51
  -0.00001488   0.00000000   0.00000000         -2.19      0.00      0.00
   0.00000000  -0.00001488   0.00000000          0.00     -2.19      0.00
   0.00000000   0.00000000  -0.00002149          0.00      0.00     -3.16

     Writing output data file pw.save/

     General routines

     Parallel routines

   This run was terminated on:  13:42:49   6Nov2020

   JOB DONE.