     Program PWSCF v.6.4.1 starts on  6Nov2020 at 13:44:35

     R & G space division:  proc/nbgrp/npool/nimage =       2
     Waiting for input...
     Reading input from standard input

     Current dimensions of program PWSCF are:
     Max number of different atomic species (ntypx) = 10
     Max number of k-points (npk) =  40000
     Max angular momentum in pseudopotentials (lmaxx) =  3
               file Ru.pbe-spn-kjpaw_psl.1.0.0.UPF: wavefunction(s)  4D renormalized

     Subspace diagonalization in iterative solution of the eigenvalue problem:
     a serial algorithm will be used

     Message from routine setup:
     DEPRECATED: symmetry with ibrav=0, use correct ibrav instead

     bravais-lattice index     =            0
     lattice parameter (alat)  =       5.1645  a.u.
     unit-cell volume          =     188.3027 (a.u.)^3
     number of atoms/cell      =            2
     number of atomic types    =            1
     number of electrons       =        32.00
     number of Kohn-Sham states=           20
     kinetic-energy cutoff     =      52.0000  Ry
     charge density cutoff     =     353.0000  Ry
     convergence threshold     =      1.0E-06
     mixing beta               =       0.7000
     number of iterations used =            8  plain     mixing
     Exchange-correlation      = SLA PW PBX PBC ( 1  4  3  4 0 0)
     nstep                     =           50

     celldm(1)=   5.164489  celldm(2)=   0.000000  celldm(3)=   0.000000
     celldm(4)=   0.000000  celldm(5)=   0.000000  celldm(6)=   0.000000

     crystal axes: (cart. coord. in units of alat)
               a(1) = (   1.000000   0.000000   0.000000 )
               a(2) = (  -0.500000   0.866025   0.000000 )
               a(3) = (   0.000000   0.000000   1.578497 )

     reciprocal axes: (cart. coord. in units 2 pi/alat)
               b(1) = (  1.000000  0.577350 -0.000000 )
               b(2) = (  0.000000  1.154701  0.000000 )
               b(3) = (  0.000000 -0.000000  0.633514 )

     PseudoPot. # 1 for Ru read from file:
     ./potentials/Ru.pbe-spn-kjpaw_psl.1.0.0.UPF
     MD5 check sum: ef9a1a079d26a7c8b16989688ed3f667
     Pseudo is Projector augmented-wave + core cor, Zval = 16.0
     Generated using "atomic" code by A. Dal Corso v.6.2.2
     Shape of augmentation charge: PSQ
     Using radial grid of 1233 points,  6 beta functions with:
                l(1) =   0
                l(2) =   0
                l(3) =   1
                l(4) =   1
                l(5) =   2
                l(6) =   2
     Q(r) pseudized with 0 coefficients

     atomic species   valence    mass     pseudopotential
        Ru            16.00   101.07000     Ru( 1.00)

     Starting magnetic structure
     atomic species   magnetization
        Ru           1.000

     24 Sym. Ops., with inversion, found (12 have fractional translation)

   Cartesian axes

     site n.     atom                  positions (alat units)
         1           Ru  tau(   1) = (   0.5000000   0.2886751   0.3946243  )
         2           Ru  tau(   2) = (  -0.0000000   0.5773503   1.1838730  )

     number of k points=   126  Methfessel-Paxton smearing, width (Ry)=  0.0200

     Number of k-points >= 100: set verbosity='high' to print them.

     Check: negative core charge=   -0.000008

     Initial potential from superposition of free atoms

     starting charge   31.99872, renormalised to   32.00000

     negative rho (up, down):  0.000E+00 3.918E-01
     Starting wfcs are   20 randomized atomic wfcs
     Checking if some PAW data can be deallocated...

     Self-consistent Calculation

     iteration #  1     ecut=    52.00 Ry     beta= 0.70
     Davidson diagonalization with overlap
     ethr =  1.00E-02,  avg # of iterations =  3.0

     total energy              =    -861.91065555 Ry
     Harris-Foulkes estimate   =    -856.08056835 Ry
     estimated scf accuracy    <       3.76054725 Ry

     total magnetization       =     8.00 Bohr mag/cell
     absolute magnetization    =     8.17 Bohr mag/cell

[...]

     Magnetic moment per site:
     atom:    1    charge:   13.9858    magn:   -0.0003    constr:    0.0000
     atom:    2    charge:   13.9858    magn:   -0.0003    constr:    0.0000

     End of self-consistent calculation

     Number of k-points >= 100: set verbosity='high' to print the bands.

     the Fermi energy is    22.9815 ev

!    total energy              =    -863.34091107 Ry
     Harris-Foulkes estimate   =    -863.34091005 Ry
     estimated scf accuracy    <       0.00000037 Ry

     total all-electron energy =    -18124.365304 Ry

     The total energy is the sum of the following terms:

     one-electron contribution =     -63.70136779 Ry
     hartree contribution      =      57.68512058 Ry
     xc contribution           =     -57.98145080 Ry
     ewald contribution        =    -324.99453914 Ry
     one-center paw contrib.   =    -474.34823905 Ry
     smearing contrib. (-TS)   =      -0.00043487 Ry

[...]

     convergence has been achieved in   8 iterations

     Forces acting on atoms (cartesian axes, Ry/au):

     atom    1 type  1   force =     0.00000000   -0.00000000    0.00000000
     atom    2 type  1   force =     0.00000000    0.00000000    0.00000000

     Total force =     0.000000     Total SCF correction =     0.000000

     Computing stress (Cartesian axis) and pressure

          total   stress  (Ry/bohr**3)                   (kbar)     P=  -48.97
  -0.00030095  -0.00000000   0.00000000        -44.27     -0.00      0.00
  -0.00000000  -0.00030095  -0.00000000         -0.00    -44.27     -0.00
   0.00000000   0.00000000  -0.00039676          0.00      0.00    -58.37

     BFGS Geometry Optimization

     number of scf cycles    =   1
     number of bfgs steps    =   0

     enthalpy new            =    -863.3409110663 Ry

     new trust radius        =       0.0272222678 bohr
     new conv_thr            =       0.0000010000 Ry

     new unit-cell volume =    183.64017 a.u.^3 (    27.21267 Ang^3 )
     density =     12.33475 g/cm^3

CELL_PARAMETERS (alat=  5.16448924)
   0.992476324  -0.000000000   0.000000000
  -0.496238162   0.859509709   0.000000000
   0.000000000  -0.000000000   1.562840343

ATOMIC_POSITIONS (crystal)
Ru       0.666666667   0.333333333   0.250000000
Ru       0.333333333   0.666666667   0.750000000

     Writing output data file pw.save/
     NEW-OLD atomic charge density approx. for the potential

     Check: negative core charge=   -0.000009
     extrapolated charge   31.18756, renormalised to   32.00000

[...]

     enthalpy old            =    -863.3409110663 Ry
     enthalpy new            =    -863.3413345174 Ry

     CASE: enthalpy_new < enthalpy_old

[...]

     CASE: enthalpy_new > enthalpy_old

[...]

     Threshold (ethr) on eigenvalues was too large:
     Diagonalizing with lowered threshold

     Davidson diagonalization with overlap
     ethr =  6.22E-08,  avg # of iterations =  1.0

[...]

     number of scf cycles    =   6
     number of bfgs steps    =   4

     enthalpy old            =    -863.3414744995 Ry
     enthalpy new            =    -863.3414745227 Ry

     CASE: enthalpy_new < enthalpy_old

     small trust_radius: resetting bfgs history

     new trust radius        =       0.0001000000 bohr
     new conv_thr            =       0.0000000100 Ry

     new unit-cell volume =    185.18414 a.u.^3 (    27.44146 Ang^3 )
     density =     12.23191 g/cm^3

[...]

ATOMIC_POSITIONS (crystal)
Ru       0.666666667   0.333333333   0.250000000
Ru       0.333333333   0.666666667   0.750000000

     Writing output data file pw.save/
     NEW-OLD atomic charge density approx. for the potential

     Check: negative core charge=   -0.000008
     extrapolated charge   32.00346, renormalised to   32.00000

[...]

     Threshold (ethr) on eigenvalues was too large:
     Diagonalizing with lowered threshold

     Davidson diagonalization with overlap
     ethr =  5.31E-09,  avg # of iterations =  1.0

[...]

Begin final coordinates
     new unit-cell volume =    185.18414 a.u.^3 (    27.44146 Ang^3 )
     density =     12.23191 g/cm^3

[...]

ATOMIC_POSITIONS (crystal)
Ru       0.666666667   0.333333333   0.250000000
Ru       0.333333333   0.666666667   0.750000000
End final coordinates

     Writing output data file pw.save/

     lsda relaxation :  a final configuration with zero
                        absolute magnetization has been found

     the program is checking if it is really the minimum energy structure
     by performing a new scf iteration without any "electronic" history

[...]

     starting charge   31.99872, renormalised to   32.00000

     negative rho (up, down):  0.000E+00 3.881E-01

[...]

     bfgs converged in   7 scf cycles and   5 bfgs steps
     (criteria: energy <  1.0E-04 Ry, force <  1.0E-03Ry/Bohr, cell <  5.0E-01kbar)

     End of BFGS Geometry Optimization

     Final enthalpy =    -863.3414745322 Ry
Begin final coordinates
     new unit-cell volume =    185.18414 a.u.^3 (    27.44146 Ang^3 )
     density =     12.23191 g/cm^3

CELL_PARAMETERS (alat=  5.16448924)
   0.995169950  -0.000000000  -0.000000000
  -0.497584975   0.861842458   0.000000000
   0.000000000  -0.000000000   1.567460199

ATOMIC_POSITIONS (crystal)
Ru       0.666666667   0.333333333   0.250000000
Ru       0.333333333   0.666666667   0.750000000
End final coordinates

[...]

     A final scf calculation at the relaxed structure.
     The G-vectors are recalculated for the final unit cell
     Results may differ from those at the preceding step.

     bravais-lattice index     =            0
     lattice parameter (alat)  =       5.1645  a.u.
     unit-cell volume          =     185.1841 (a.u.)^3
     number of atoms/cell      =            2
     number of atomic types    =            1
     number of electrons       =        32.00
     number of Kohn-Sham states=           20
     kinetic-energy cutoff     =      52.0000  Ry
     charge density cutoff     =     353.0000  Ry
     convergence threshold     =      1.0E-08
     mixing beta               =       0.7000
     number of iterations used =            8  plain     mixing
     Exchange-correlation      = SLA PW PBX PBC ( 1  4  3  4 0 0)

     celldm(1)=   5.164489  celldm(2)=   0.000000  celldm(3)=   0.000000
     celldm(4)=   0.000000  celldm(5)=   0.000000  celldm(6)=   0.000000

     crystal axes: (cart. coord. in units of alat)
               a(1) = (   0.995170  -0.000000  -0.000000 )
               a(2) = (  -0.497585   0.861842   0.000000 )
               a(3) = (   0.000000  -0.000000   1.567460 )

     reciprocal axes: (cart. coord. in units 2 pi/alat)
               b(1) = (  1.004853  0.580152 -0.000000 )
               b(2) = (  0.000000  1.160305  0.000000 )
               b(3) = (  0.000000 -0.000000  0.637975 )

     PseudoPot. # 1 for Ru read from file:
     ./potentials/Ru.pbe-spn-kjpaw_psl.1.0.0.UPF
     MD5 check sum: ef9a1a079d26a7c8b16989688ed3f667
     Pseudo is Projector augmented-wave + core cor, Zval = 16.0
     Generated using "atomic" code by A. Dal Corso v.6.2.2
     Shape of augmentation charge: PSQ
     Using radial grid of 1233 points,  6 beta functions with:
                l(1) =   0
                l(2) =   0
                l(3) =   1
                l(4) =   1
                l(5) =   2
                l(6) =   2
     Q(r) pseudized with 0 coefficients

     atomic species   valence    mass     pseudopotential
        Ru            16.00   101.07000     Ru( 1.00)

     Starting magnetic structure
     atomic species   magnetization
        Ru           0.000

     24 Sym. Ops., with inversion, found (12 have fractional translation)

   Cartesian axes

     site n.     atom                  positions (alat units)
         1           Ru  tau(   1) = (   0.4975850   0.2872808   0.3918650  )
         2           Ru  tau(   2) = (  -0.0000000   0.5745616   1.1755951  )

     number of k points=   126  Methfessel-Paxton smearing, width (Ry)=  0.0200

     Number of k-points >= 100: set verbosity='high' to print them.

     Check: negative core charge=   -0.000008

     Initial potential from superposition of free atoms

     starting charge   31.99872, renormalised to   32.00000
     Starting wfcs are   20 randomized atomic wfcs
     Checking if some PAW data can be deallocated...

     Self-consistent Calculation

[...]

     total energy              =    -863.34119291 Ry
     Harris-Foulkes estimate   =    -863.34119292 Ry
     estimated scf accuracy    <       0.00000002 Ry

[...]

     iteration #  7     ecut=    52.00 Ry     beta= 0.70
     Davidson diagonalization with overlap
     ethr =  5.78E-11,  avg # of iterations =  2.0

     Magnetic moment per site:
     atom:    1    charge:   14.0138    magn:    0.0000    constr:    0.0000
     atom:    2    charge:   14.0138    magn:    0.0000    constr:    0.0000

     End of self-consistent calculation

     Number of k-points >= 100: set verbosity='high' to print the bands.

     the Fermi energy is    23.4616 ev

!    total energy              =    -863.34119291 Ry
     Harris-Foulkes estimate   =    -863.34119291 Ry
     estimated scf accuracy    <          4.9E-10 Ry

     total all-electron energy =    -18124.365586 Ry

     The total energy is the sum of the following terms:

     one-electron contribution =     -61.06344592 Ry
     hartree contribution      =      56.89575792 Ry
     xc contribution           =     -58.02156195 Ry
     ewald contribution        =    -326.80187246 Ry
     one-center paw contrib.   =    -474.34962481 Ry
     smearing contrib. (-TS)   =      -0.00044568 Ry

     total magnetization       =     0.00 Bohr mag/cell
     absolute magnetization    =     0.00 Bohr mag/cell

     convergence has been achieved in   7 iterations

     Forces acting on atoms (cartesian axes, Ry/au):

     atom    1 type  1   force =     0.00000000    0.00000000   -0.00000000
     atom    2 type  1   force =    -0.00000000    0.00000000    0.00000000

     Total force =     0.000000     Total SCF correction =     0.000000

     Computing stress (Cartesian axis) and pressure

          total   stress  (Ry/bohr**3)                   (kbar)     P=    0.44
   0.00000287  -0.00000000  -0.00000000          0.42     -0.00     -0.00
  -0.00000000   0.00000287   0.00000000         -0.00      0.42      0.00
  -0.00000000   0.00000000   0.00000321         -0.00      0.00      0.47

     Writing output data file pw.save/

     General routines

     Parallel routines

   This run was terminated on:  14:14:36   6Nov2020

   JOB DONE.