     Program PWSCF v.6.4.1 starts on  6Nov2020 at 10:57:23

     R & G space division:  proc/nbgrp/npool/nimage =       2
     Waiting for input...
     Reading input from standard input

     Current dimensions of program PWSCF are:
     Max number of different atomic species (ntypx) = 10
     Max number of k-points (npk) =  40000
     Max angular momentum in pseudopotentials (lmaxx) =  3
               file Sc.pbe-spn-kjpaw_psl.1.0.0.UPF: wavefunction(s)  3S 3P 3D renormalized

     Subspace diagonalization in iterative solution of the eigenvalue problem:
     a serial algorithm will be used

     Message from routine setup:
     DEPRECATED: symmetry with ibrav=0, use correct ibrav instead

     bravais-lattice index     =            0
     lattice parameter (alat)  =       6.2714  a.u.
     unit-cell volume          =     333.2873 (a.u.)^3
     number of atoms/cell      =            2
     number of atomic types    =            1
     number of electrons       =        22.00
     number of Kohn-Sham states=           15
     kinetic-energy cutoff     =      50.0000  Ry
     charge density cutoff     =     402.0000  Ry
     convergence threshold     =      1.0E-06
     mixing beta               =       0.7000
     number of iterations used =            8  plain     mixing
     Exchange-correlation      = SLA PW PBX PBC ( 1  4  3  4 0 0)
     nstep                     =           50

     celldm(1)=   6.271359  celldm(2)=   0.000000  celldm(3)=   0.000000
     celldm(4)=   0.000000  celldm(5)=   0.000000  celldm(6)=   0.000000

     crystal axes: (cart. coord. in units of alat)
               a(1) = (   1.000000   0.000000   0.000000 )
               a(2) = (  -0.500000   0.866025   0.000000 )
               a(3) = (   0.000000   0.000000   1.560282 )

     reciprocal axes: (cart. coord. in units 2 pi/alat)
               b(1) = (  1.000000  0.577350 -0.000000 )
               b(2) = (  0.000000  1.154701  0.000000 )
               b(3) = (  0.000000 -0.000000  0.640910 )

     PseudoPot. # 1 for Sc read from file:
     ./potentials/Sc.pbe-spn-kjpaw_psl.1.0.0.UPF
     MD5 check sum: d5ac433e587a0148d610ca85a1be5559
     Pseudo is Projector augmented-wave + core cor, Zval = 11.0
     Generated using "atomic" code by A. Dal Corso v.6.2.2
     Shape of augmentation charge: PSQ
     Using radial grid of 1173 points,  6 beta functions with:
                l(1) =   0
                l(2) =   0
                l(3) =   1
                l(4) =   1
                l(5) =   2
                l(6) =   2
     Q(r) pseudized with 0 coefficients

     atomic species   valence    mass     pseudopotential
        Sc            11.00    44.95500     Sc( 1.00)

     Starting magnetic structure
     atomic species   magnetization
        Sc           1.000

     24 Sym. Ops., with inversion, found (12 have fractional translation)

   Cartesian axes

     site n.     atom                  positions (alat units)
         1           Sc  tau(   1) = (   0.5000000   0.2886751   0.3900706  )
         2           Sc  tau(   2) = (  -0.0000000   0.5773503   1.1702117  )

     number of k points=    90  Methfessel-Paxton smearing, width (Ry)=  0.0200
                       cart. coord. in units 2pi/alat
        k(    1) = (   0.0500000   0.0866025   0.0534091), wk =   0.0066667
        k(    2) = (   0.0500000   0.0866025   0.1602274), wk =   0.0066667
        k(    3) = (   0.0500000   0.0866025   0.2670457), wk =   0.0066667
        k(    4) = (   0.0500000   0.2020726   0.0534091), wk =   0.0133333
        k(    5) = (   0.0500000   0.2020726   0.1602274), wk =   0.0133333
        k(    6) = (   0.0500000   0.2020726   0.2670457), wk =   0.0133333
        k(    7) = (   0.0500000   0.3175426   0.0534091), wk =   0.0133333
        k(    8) = (   0.0500000   0.3175426   0.1602274), wk =   0.0133333
        k(    9) = (   0.0500000   0.3175426   0.2670457), wk =   0.0133333
        k(   10) = (   0.0500000   0.4330127   0.0534091), wk =   0.0133333
        k(   11) = (   0.0500000   0.4330127   0.1602274), wk =   0.0133333
        k(   12) = (   0.0500000   0.4330127   0.2670457), wk =   0.0133333
        k(   13) = (   0.0500000   0.5484828   0.0534091), wk =   0.0133333
        k(   14) = (   0.0500000   0.5484828   0.1602274), wk =   0.0133333
        k(   15) = (   0.0500000   0.5484828   0.2670457), wk =   0.0133333
        k(   16) = (   0.0500000  -0.4907477   0.0534091), wk =   0.0133333
        k(   17) = (   0.0500000  -0.4907477   0.1602274), wk =   0.0133333
        k(   18) = (   0.0500000  -0.4907477   0.2670457), wk =   0.0133333
        k(   19) = (   0.0500000  -0.3752777   0.0534091), wk =   0.0133333
        k(   20) = (   0.0500000  -0.3752777   0.1602274), wk =   0.0133333
        k(   21) = (   0.0500000  -0.3752777   0.2670457), wk =   0.0133333
        k(   22) = (   0.0500000  -0.2598076   0.0534091), wk =   0.0133333
        k(   23) = (   0.0500000  -0.2598076   0.1602274), wk =   0.0133333
        k(   24) = (   0.0500000  -0.2598076   0.2670457), wk =   0.0133333
        k(   25) = (   0.0500000  -0.1443376   0.0534091), wk =   0.0133333
        k(   26) = (   0.0500000  -0.1443376   0.1602274), wk =   0.0133333
        k(   27) = (   0.0500000  -0.1443376   0.2670457), wk =   0.0133333
        k(   28) = (   0.0500000  -0.0288675   0.0534091), wk =   0.0066667
        k(   29) = (   0.0500000  -0.0288675   0.1602274), wk =   0.0066667
        k(   30) = (   0.0500000  -0.0288675   0.2670457), wk =   0.0066667
        k(   31) = (   0.1500000   0.2598076   0.0534091), wk =   0.0066667
        k(   32) = (   0.1500000   0.2598076   0.1602274), wk =   0.0066667
        k(   33) = (   0.1500000   0.2598076   0.2670457), wk =   0.0066667
        k(   34) = (   0.1500000   0.3752777   0.0534091), wk =   0.0133333
        k(   35) = (   0.1500000   0.3752777   0.1602274), wk =   0.0133333
        k(   36) = (   0.1500000   0.3752777   0.2670457), wk =   0.0133333
        k(   37) = (   0.1500000   0.4907477   0.0534091), wk =   0.0133333
        k(   38) = (   0.1500000   0.4907477   0.1602274), wk =   0.0133333
        k(   39) = (   0.1500000   0.4907477   0.2670457), wk =   0.0133333
        k(   40) = (   0.1500000   0.6062178   0.0534091), wk =   0.0133333
        k(   41) = (   0.1500000   0.6062178   0.1602274), wk =   0.0133333
        k(   42) = (   0.1500000   0.6062178   0.2670457), wk =   0.0133333
        k(   43) = (   0.1500000  -0.4330127   0.0534091), wk =   0.0133333
        k(   44) = (   0.1500000  -0.4330127   0.1602274), wk =   0.0133333
        k(   45) = (   0.1500000  -0.4330127   0.2670457), wk =   0.0133333
        k(   46) = (   0.1500000  -0.3175426   0.0534091), wk =   0.0133333
        k(   47) = (   0.1500000  -0.3175426   0.1602274), wk =   0.0133333
        k(   48) = (   0.1500000  -0.3175426   0.2670457), wk =   0.0133333
        k(   49) = (   0.1500000  -0.2020726   0.0534091), wk =   0.0133333
        k(   50) = (   0.1500000  -0.2020726   0.1602274), wk =   0.0133333
        k(   51) = (   0.1500000  -0.2020726   0.2670457), wk =   0.0133333
        k(   52) = (   0.1500000  -0.0866025   0.0534091), wk =   0.0066667
        k(   53) = (   0.1500000  -0.0866025   0.1602274), wk =   0.0066667
        k(   54) = (   0.1500000  -0.0866025   0.2670457), wk =   0.0066667
        k(   55) = (   0.2500000   0.4330127   0.0534091), wk =   0.0066667
        k(   56) = (   0.2500000   0.4330127   0.1602274), wk =   0.0066667
        k(   57) = (   0.2500000   0.4330127   0.2670457), wk =   0.0066667
        k(   58) = (   0.2500000   0.5484828   0.0534091), wk =   0.0133333
        k(   59) = (   0.2500000   0.5484828   0.1602274), wk =   0.0133333
        k(   60) = (   0.2500000   0.5484828   0.2670457), wk =   0.0133333
[...]
        k(   76) = (   0.3500000   0.7216878   0.0534091), wk =   0.0133333
        k(   77) = (   0.3500000   0.7216878   0.1602274), wk =   0.0133333
        k(   78) = (   0.3500000   0.7216878   0.2670457), wk =   0.0133333
        k(   79) = (   0.3500000  -0.3175426   0.0534091), wk =   0.0133333
        k(   80) = (   0.3500000  -0.3175426   0.1602274), wk =   0.0133333
        k(   81) = (   0.3500000  -0.3175426   0.2670457), wk =   0.0133333
        k(   82) = (   0.3500000  -0.2020726   0.0534091), wk =   0.0066667
        k(   83) = (   0.3500000  -0.2020726   0.1602274), wk =   0.0066667
        k(   84) = (   0.3500000  -0.2020726   0.2670457), wk =   0.0066667
        k(   85) = (   0.4500000   0.7794229   0.0534091), wk =   0.0066667
        k(   86) = (   0.4500000   0.7794229   0.1602274), wk =   0.0066667
        k(   87) = (   0.4500000   0.7794229   0.2670457), wk =   0.0066667
        k(   88) = (   0.4500000  -0.2598076   0.0534091), wk =   0.0066667
        k(   89) = (   0.4500000  -0.2598076   0.1602274), wk =   0.0066667
        k(   90) = (   0.4500000  -0.2598076   0.2670457), wk =   0.0066667

     Check: negative core charge=   -0.000012

     Initial potential from superposition of free atoms

     starting charge   21.99488, renormalised to   22.00000

     negative rho (up, down):  0.000E+00 4.684E-01
     Starting wfcs are   20 randomized atomic wfcs
     Checking if some PAW data can be deallocated...

     Self-consistent Calculation

     iteration #  1     ecut=    50.00 Ry     beta= 0.70
     Davidson diagonalization with overlap
     ethr =  1.00E-02,  avg # of iterations =  2.8

     total energy              =    -312.90642796 Ry
     Harris-Foulkes estimate   =    -308.68188296 Ry
     estimated scf accuracy    <       2.38746089 Ry

     total magnetization       =     5.96 Bohr mag/cell
     absolute magnetization    =     5.96 Bohr mag/cell

[...]

     iteration #  9     ecut=    50.00 Ry     beta= 0.70
     Davidson diagonalization with overlap
     c_bands:  1 eigenvalues not converged
     ethr =  1.12E-06,  avg # of iterations =  5.2

[...]

     Magnetic moment per site:
     atom:    1    charge:    9.6712    magn:    0.0408    constr:    0.0000
     atom:    2    charge:    9.6712    magn:    0.0408    constr:    0.0000

     End of self-consistent calculation

     Number of k-points >= 100: set verbosity='high' to print the bands.

     the Fermi energy is     9.2292 ev

!    total energy              =    -313.91384840 Ry
     Harris-Foulkes estimate   =    -313.91384817 Ry
     estimated scf accuracy    <       0.00000009 Ry

     total all-electron energy =     -3056.891415 Ry

     The total energy is the sum of the following terms:

     one-electron contribution =     -73.58859677 Ry
     hartree contribution      =      42.05355189 Ry
     xc contribution           =     -34.90236869 Ry
     ewald contribution        =    -126.97344279 Ry
     one-center paw contrib.   =    -120.50209886 Ry
     smearing contrib. (-TS)   =      -0.00089318 Ry

[...]

     convergence has been achieved in  16 iterations

     Forces acting on atoms (cartesian axes, Ry/au):

     atom    1 type  1   force =     0.00000000    0.00000000    0.00000000
     atom    2 type  1   force =    -0.00000000   -0.00000000    0.00000000

     Total force =     0.000000     Total SCF correction =     0.000000

     Computing stress (Cartesian axis) and pressure

          total   stress  (Ry/bohr**3)                   (kbar)     P=   -4.09
  -0.00002548   0.00000000   0.00000000         -3.75      0.00      0.00
  -0.00000000  -0.00002548   0.00000000         -0.00     -3.75      0.00
   0.00000000  -0.00000000  -0.00003256          0.00     -0.00     -4.79

     BFGS Geometry Optimization

     number of scf cycles    =   1
     number of bfgs steps    =   0

     enthalpy new            =    -313.9138483977 Ry

     new trust radius        =       0.0029720921 bohr
     new conv_thr            =       0.0000010000 Ry

     new unit-cell volume =    332.59191 a.u.^3 (    49.28504 Ang^3 )
     density =      3.02930 g/cm^3

CELL_PARAMETERS (alat=  6.27135853)
   0.999363118  -0.000000000   0.000000000
  -0.499681559   0.865473848  -0.000000000
   0.000000000   0.000000000   1.559012249

ATOMIC_POSITIONS (crystal)
Sc       0.666666667   0.333333333   0.250000000
Sc       0.333333333   0.666666667   0.750000000

     Writing output data file pw.save/
     NEW-OLD atomic charge density approx. for the potential

     Check: negative core charge=   -0.000012
     extrapolated charge   21.95402, renormalised to   22.00000

[...]

     enthalpy old            =    -313.9138483977 Ry
     enthalpy new            =    -313.9138701447 Ry

     CASE: enthalpy_new < enthalpy_old

     WARNING: bfgs curvature condition failed, Theta= 0.805
     new trust radius        =       0.0044571133 bohr
     new conv_thr            =       0.0000000100 Ry

[...]

     Threshold (ethr) on eigenvalues was too large:
     Diagonalizing with lowered threshold

     Davidson diagonalization with overlap
     ethr =  2.75E-08,  avg # of iterations =  4.4

[...]

     WARNING: bfgs curvature condition failed, Theta= 0.549
     uphill step: resetting bfgs history

[...]

     number of scf cycles    =   7
     number of bfgs steps    =   6

     enthalpy old            =    -313.9138962429 Ry
     enthalpy new            =    -313.9138966002 Ry

     CASE: enthalpy_new < enthalpy_old

     new trust radius        =       0.0006096614 bohr
     new conv_thr            =       0.0000000100 Ry

     new unit-cell volume =    330.51336 a.u.^3 (    48.97703 Ang^3 )
     density =      3.04835 g/cm^3

[...]

ATOMIC_POSITIONS (crystal)
Sc       0.666666667   0.333333333   0.250000000
Sc       0.333333333   0.666666667   0.750000000

     Writing output data file pw.save/
     NEW-OLD atomic charge density approx. for the potential

     Check: negative core charge=   -0.000012
     extrapolated charge   22.00697, renormalised to   22.00000

[...]

     Threshold (ethr) on eigenvalues was too large:
     Diagonalizing with lowered threshold

     Davidson diagonalization with overlap
     ethr =  2.22E-08,  avg # of iterations =  4.6

[...]

     bfgs converged in   8 scf cycles and   7 bfgs steps
     (criteria: energy <  1.0E-04 Ry, force <  1.0E-03Ry/Bohr, cell <  5.0E-01kbar)

     End of BFGS Geometry Optimization

     Final enthalpy =    -313.9138968721 Ry
Begin final coordinates
     new unit-cell volume =    330.51336 a.u.^3 (    48.97703 Ang^3 )
     density =      3.04835 g/cm^3

CELL_PARAMETERS (alat=  6.27135853)
   0.997825458  -0.000000000   0.000000000
  -0.498912729   0.864142196  -0.000000000
  -0.000000000  -0.000000000   1.554047671

ATOMIC_POSITIONS (crystal)
Sc       0.666666667   0.333333333   0.250000000
Sc       0.333333333   0.666666667   0.750000000
End final coordinates

     Writing output data file pw.save/

     A final scf calculation at the relaxed structure.
     The G-vectors are recalculated for the final unit cell
     Results may differ from those at the preceding step.

     bravais-lattice index     =            0
     lattice parameter (alat)  =       6.2714  a.u.
     unit-cell volume          =     330.5134 (a.u.)^3
     number of atoms/cell      =            2
     number of atomic types    =            1
     number of electrons       =        22.00
     number of Kohn-Sham states=           15
     kinetic-energy cutoff     =      50.0000  Ry
     charge density cutoff     =     402.0000  Ry
     convergence threshold     =      1.0E-08
     mixing beta               =       0.7000
     number of iterations used =            8  plain     mixing
     Exchange-correlation      = SLA PW PBX PBC ( 1  4  3  4 0 0)

     celldm(1)=   6.271359  celldm(2)=   0.000000  celldm(3)=   0.000000
     celldm(4)=   0.000000  celldm(5)=   0.000000  celldm(6)=   0.000000

     crystal axes: (cart. coord. in units of alat)
               a(1) = (   0.997825  -0.000000   0.000000 )
               a(2) = (  -0.498913   0.864142  -0.000000 )
               a(3) = (  -0.000000  -0.000000   1.554048 )

     reciprocal axes: (cart. coord. in units 2 pi/alat)
               b(1) = (  1.002179  0.578608  0.000000 )
               b(2) = (  0.000000  1.157217  0.000000 )
               b(3) = (  0.000000  0.000000  0.643481 )

     PseudoPot. # 1 for Sc read from file:
     ./potentials/Sc.pbe-spn-kjpaw_psl.1.0.0.UPF
     MD5 check sum: d5ac433e587a0148d610ca85a1be5559
     Pseudo is Projector augmented-wave + core cor, Zval = 11.0
     Generated using "atomic" code by A. Dal Corso v.6.2.2
     Shape of augmentation charge: PSQ
     Using radial grid of 1173 points,  6 beta functions with:
                l(1) =   0
                l(2) =   0
                l(3) =   1
                l(4) =   1
                l(5) =   2
                l(6) =   2
     Q(r) pseudized with 0 coefficients

     atomic species   valence    mass     pseudopotential
        Sc            11.00    44.95500     Sc( 1.00)

     Starting magnetic structure
     atomic species   magnetization
        Sc           0.000

     24 Sym. Ops., with inversion, found (12 have fractional translation)

   Cartesian axes

     site n.     atom                  positions (alat units)
         1           Sc  tau(   1) = (   0.4989127   0.2880474   0.3885119  )
         2           Sc  tau(   2) = (  -0.0000000   0.5760948   1.1655358  )

     number of k points=    90  Methfessel-Paxton smearing, width (Ry)=  0.0200
                       cart. coord. in units 2pi/alat
        k(    1) = (   0.0501090   0.0867913   0.0536234), wk =   0.0066667
        k(    2) = (   0.0501090   0.0867913   0.1608702), wk =   0.0066667
        k(    3) = (   0.0501090   0.0867913   0.2681170), wk =   0.0066667
        k(    4) = (   0.0501090   0.2025130   0.0536234), wk =   0.0133333
        k(    5) = (   0.0501090   0.2025130   0.1608702), wk =   0.0133333
        k(    6) = (   0.0501090   0.2025130   0.2681170), wk =   0.0133333
        k(    7) = (   0.0501090   0.3182347   0.0536234), wk =   0.0133333
        k(    8) = (   0.0501090   0.3182347   0.1608702), wk =   0.0133333
        k(    9) = (   0.0501090   0.3182347   0.2681170), wk =   0.0133333
        k(   10) = (   0.0501090   0.4339564   0.0536234), wk =   0.0133333
        k(   11) = (   0.0501090   0.4339564   0.1608702), wk =   0.0133333
        k(   12) = (   0.0501090   0.4339564   0.2681170), wk =   0.0133333
        k(   13) = (   0.0501090   0.5496781   0.0536234), wk =   0.0133333
        k(   14) = (   0.0501090   0.5496781   0.1608702), wk =   0.0133333
        k(   15) = (   0.0501090   0.5496781   0.2681170), wk =   0.0133333
        k(   16) = (   0.0501090  -0.4918172   0.0536234), wk =   0.0133333
        k(   17) = (   0.0501090  -0.4918172   0.1608702), wk =   0.0133333
        k(   18) = (   0.0501090  -0.4918172   0.2681170), wk =   0.0133333
        k(   19) = (   0.0501090  -0.3760955   0.0536234), wk =   0.0133333
        k(   20) = (   0.0501090  -0.3760955   0.1608702), wk =   0.0133333
        k(   21) = (   0.0501090  -0.3760955   0.2681170), wk =   0.0133333
        k(   22) = (   0.0501090  -0.2603738   0.0536234), wk =   0.0133333
        k(   23) = (   0.0501090  -0.2603738   0.1608702), wk =   0.0133333
        k(   24) = (   0.0501090  -0.2603738   0.2681170), wk =   0.0133333
        k(   25) = (   0.0501090  -0.1446521   0.0536234), wk =   0.0133333
        k(   26) = (   0.0501090  -0.1446521   0.1608702), wk =   0.0133333
        k(   27) = (   0.0501090  -0.1446521   0.2681170), wk =   0.0133333
        k(   28) = (   0.0501090  -0.0289304   0.0536234), wk =   0.0066667
        k(   29) = (   0.0501090  -0.0289304   0.1608702), wk =   0.0066667
        k(   30) = (   0.0501090  -0.0289304   0.2681170), wk =   0.0066667
        k(   31) = (   0.1503269   0.2603738   0.0536234), wk =   0.0066667
        k(   32) = (   0.1503269   0.2603738   0.1608702), wk =   0.0066667
        k(   33) = (   0.1503269   0.2603738   0.2681170), wk =   0.0066667
        k(   34) = (   0.1503269   0.3760955   0.0536234), wk =   0.0133333
        k(   35) = (   0.1503269   0.3760955   0.1608702), wk =   0.0133333
        k(   36) = (   0.1503269   0.3760955   0.2681170), wk =   0.0133333
        k(   37) = (   0.1503269   0.4918172   0.0536234), wk =   0.0133333
        k(   38) = (   0.1503269   0.4918172   0.1608702), wk =   0.0133333
        k(   39) = (   0.1503269   0.4918172   0.2681170), wk =   0.0133333
        k(   40) = (   0.1503269   0.6075389   0.0536234), wk =   0.0133333
        k(   41) = (   0.1503269   0.6075389   0.1608702), wk =   0.0133333
        k(   42) = (   0.1503269   0.6075389   0.2681170), wk =   0.0133333
        k(   43) = (   0.1503269  -0.4339564   0.0536234), wk =   0.0133333
        k(   44) = (   0.1503269  -0.4339564   0.1608702), wk =   0.0133333
        k(   45) = (   0.1503269  -0.4339564   0.2681170), wk =   0.0133333
        k(   46) = (   0.1503269  -0.3182347   0.0536234), wk =   0.0133333
        k(   47) = (   0.1503269  -0.3182347   0.1608702), wk =   0.0133333
        k(   48) = (   0.1503269  -0.3182347   0.2681170), wk =   0.0133333
        k(   49) = (   0.1503269  -0.2025130   0.0536234), wk =   0.0133333
        k(   50) = (   0.1503269  -0.2025130   0.1608702), wk =   0.0133333
        k(   51) = (   0.1503269  -0.2025130   0.2681170), wk =   0.0133333
        k(   52) = (   0.1503269  -0.0867913   0.0536234), wk =   0.0066667
        k(   53) = (   0.1503269  -0.0867913   0.1608702), wk =   0.0066667
        k(   54) = (   0.1503269  -0.0867913   0.2681170), wk =   0.0066667
        k(   55) = (   0.2505448   0.4339564   0.0536234), wk =   0.0066667
        k(   56) = (   0.2505448   0.4339564   0.1608702), wk =   0.0066667
        k(   57) = (   0.2505448   0.4339564   0.2681170), wk =   0.0066667
        k(   58) = (   0.2505448   0.5496781   0.0536234), wk =   0.0133333
        k(   59) = (   0.2505448   0.5496781   0.1608702), wk =   0.0133333
        k(   60) = (   0.2505448   0.5496781   0.2681170), wk =   0.0133333
[...]
        k(   76) = (   0.3507627   0.7232606   0.0536234), wk =   0.0133333
        k(   77) = (   0.3507627   0.7232606   0.1608702), wk =   0.0133333
        k(   78) = (   0.3507627   0.7232606   0.2681170), wk =   0.0133333
        k(   79) = (   0.3507627  -0.3182347   0.0536234), wk =   0.0133333
        k(   80) = (   0.3507627  -0.3182347   0.1608702), wk =   0.0133333
        k(   81) = (   0.3507627  -0.3182347   0.2681170), wk =   0.0133333
        k(   82) = (   0.3507627  -0.2025130   0.0536234), wk =   0.0066667
        k(   83) = (   0.3507627  -0.2025130   0.1608702), wk =   0.0066667
        k(   84) = (   0.3507627  -0.2025130   0.2681170), wk =   0.0066667
        k(   85) = (   0.4509807   0.7811214   0.0536234), wk =   0.0066667
        k(   86) = (   0.4509807   0.7811214   0.1608702), wk =   0.0066667
        k(   87) = (   0.4509807   0.7811214   0.2681170), wk =   0.0066667
        k(   88) = (   0.4509807  -0.2603738   0.0536234), wk =   0.0066667
        k(   89) = (   0.4509807  -0.2603738   0.1608702), wk =   0.0066667
        k(   90) = (   0.4509807  -0.2603738   0.2681170), wk =   0.0066667

     Check: negative core charge=   -0.000012

     Initial potential from superposition of free atoms

     starting charge   21.99488, renormalised to   22.00000
     Starting wfcs are   20 randomized atomic wfcs
     Checking if some PAW data can be deallocated...

     Self-consistent Calculation

     iteration #  1     ecut=    50.00 Ry     beta= 0.70
     Davidson diagonalization with overlap
     c_bands:  1 eigenvalues not converged
     c_bands:  2 eigenvalues not converged
     c_bands:  3 eigenvalues not converged
     c_bands:  1 eigenvalues not converged
     c_bands:  3 eigenvalues not converged
     c_bands:  2 eigenvalues not converged
     c_bands:  2 eigenvalues not converged
     c_bands:  3 eigenvalues not converged
     c_bands:  2 eigenvalues not converged
     c_bands:  2 eigenvalues not converged
     c_bands:  2 eigenvalues not converged
     c_bands:  1 eigenvalues not converged
     c_bands:  2 eigenvalues not converged
     c_bands:  3 eigenvalues not converged
     c_bands:  1 eigenvalues not converged
     c_bands:  3 eigenvalues not converged
     c_bands:  3 eigenvalues not converged
     c_bands:  3 eigenvalues not converged
     c_bands:  3 eigenvalues not converged
     c_bands:  1 eigenvalues not converged
     c_bands:  1 eigenvalues not converged
     c_bands:  2 eigenvalues not converged
     ethr =  1.00E-06,  avg # of iterations = 15.8

[...]

     total energy              =    -313.91380482 Ry
     Harris-Foulkes estimate   =    -313.91380495 Ry
     estimated scf accuracy    <       0.00000025 Ry

[...]

     iteration #  6     ecut=    50.00 Ry     beta= 0.70
     Davidson diagonalization with overlap
     ethr =  1.12E-09,  avg # of iterations =  4.9

     Magnetic moment per site:
     atom:    1    charge:    9.6822    magn:    0.0007    constr:    0.0000
     atom:    2    charge:    9.6822    magn:    0.0007    constr:    0.0000

     End of self-consistent calculation

     Number of k-points >= 100: set verbosity='high' to print the bands.

     the Fermi energy is     9.3244 ev

!    total energy              =    -313.91380489 Ry
     Harris-Foulkes estimate   =    -313.91380489 Ry
     estimated scf accuracy    <          1.3E-09 Ry

     total all-electron energy =     -3056.891372 Ry

     The total energy is the sum of the following terms:

     one-electron contribution =     -73.05835427 Ry
     hartree contribution      =      41.88465738 Ry
     xc contribution           =     -34.91242188 Ry
     ewald contribution        =    -127.32477878 Ry
     one-center paw contrib.   =    -120.50202173 Ry
     smearing contrib. (-TS)   =      -0.00088561 Ry

     total magnetization       =     0.00 Bohr mag/cell
     absolute magnetization    =     0.00 Bohr mag/cell

     convergence has been achieved in   6 iterations

     Forces acting on atoms (cartesian axes, Ry/au):

     atom    1 type  1   force =    -0.00000000   -0.00000000   -0.00000000
     atom    2 type  1   force =     0.00000000    0.00000000    0.00000000

     Total force =     0.000000     Total SCF correction =     0.000000

     Computing stress (Cartesian axis) and pressure

          total   stress  (Ry/bohr**3)                   (kbar)     P=    0.38
   0.00000367   0.00000000   0.00000000          0.54      0.00      0.00
   0.00000000   0.00000367   0.00000000          0.00      0.54      0.00
  -0.00000000   0.00000000   0.00000032         -0.00      0.00      0.05

     Writing output data file pw.save/

     General routines

     Parallel routines

   This run was terminated on:  11:26:50   6Nov2020

   JOB DONE.