     Program PWSCF v.6.4.1 starts on  7Nov2020 at  7:48: 5

     R & G space division:  proc/nbgrp/npool/nimage =       2
     Waiting for input...
     Reading input from standard input

     Current dimensions of program PWSCF are:
     Max number of different atomic species (ntypx) = 10
     Max number of k-points (npk) =  40000
     Max angular momentum in pseudopotentials (lmaxx) =  3
               file Tb.pbe-spdn-kjpaw_psl.1.0.0.UPF: wavefunction(s)  5P renormalized

     Subspace diagonalization in iterative solution of the eigenvalue problem:
     a serial algorithm will be used

     Message from routine setup:
     DEPRECATED: symmetry with ibrav=0, use correct ibrav instead

     bravais-lattice index     =            0
     lattice parameter (alat)  =       6.8049  a.u.
     unit-cell volume          =     431.4798 (a.u.)^3
     number of atoms/cell      =            2
     number of atomic types    =            1
     number of electrons       =        22.00
     number of Kohn-Sham states=           15
     kinetic-energy cutoff     =      35.0000  Ry
     charge density cutoff     =     229.0000  Ry
     convergence threshold     =      1.0E-06
     mixing beta               =       0.7000
     number of iterations used =            8  plain     mixing
     Exchange-correlation      = SLA PW PBX PBC ( 1  4  3  4 0 0)
     nstep                     =           50

     celldm(1)=   6.804904  celldm(2)=   0.000000  celldm(3)=   0.000000
     celldm(4)=   0.000000  celldm(5)=   0.000000  celldm(6)=   0.000000

     crystal axes: (cart. coord. in units of alat)
               a(1) = (   1.000000   0.000000   0.000000 )
               a(2) = (  -0.500000   0.866025   0.000000 )
               a(3) = (   0.000000   0.000000   1.581116 )

     reciprocal axes: (cart. coord. in units 2 pi/alat)
               b(1) = (  1.000000  0.577350 -0.000000 )
               b(2) = (  0.000000  1.154701  0.000000 )
               b(3) = (  0.000000 -0.000000  0.632465 )

     PseudoPot. # 1 for Tb read from file:
     ./potentials/Tb.pbe-spdn-kjpaw_psl.1.0.0.UPF
     MD5 check sum: 1d4feb5b01b570ab3d1af2cc1fee54c1
     Pseudo is Projector augmented-wave + core cor, Zval = 11.0
     Generated using "atomic" code by A. Dal Corso v.6.2.2
     Shape of augmentation charge: PSQ
     Using radial grid of 1263 points,  6 beta functions with:
                l(1) =   0
                l(2) =   0
                l(3) =   1
                l(4) =   1
                l(5) =   2
                l(6) =   2
     Q(r) pseudized with 0 coefficients

     atomic species   valence    mass     pseudopotential
        Tb            11.00   158.92500     Tb( 1.00)

     Starting magnetic structure
     atomic species   magnetization
        Tb           1.000

     24 Sym. Ops., with inversion, found (12 have fractional translation)

   Cartesian axes

     site n.     atom                  positions (alat units)
         1           Tb  tau(   1) = (  -0.0000000   0.5773503   0.3952791  )
         2           Tb  tau(   2) = (   0.5000000   0.2886751   1.1858373  )

     number of k points=    90  Methfessel-Paxton smearing, width (Ry)=  0.0200
                       cart. coord. in units 2pi/alat
        k(    1) = (   0.0500000   0.0866025   0.0527054), wk =   0.0066667
        k(    2) = (   0.0500000   0.0866025   0.1581161), wk =   0.0066667
        k(    3) = (   0.0500000   0.0866025   0.2635269), wk =   0.0066667
        k(    4) = (   0.0500000   0.2020726   0.0527054), wk =   0.0133333
        k(    5) = (   0.0500000   0.2020726   0.1581161), wk =   0.0133333
        k(    6) = (   0.0500000   0.2020726   0.2635269), wk =   0.0133333
        k(    7) = (   0.0500000   0.3175426   0.0527054), wk =   0.0133333
        k(    8) = (   0.0500000   0.3175426   0.1581161), wk =   0.0133333
        k(    9) = (   0.0500000   0.3175426   0.2635269), wk =   0.0133333
        k(   10) = (   0.0500000   0.4330127   0.0527054), wk =   0.0133333
        k(   11) = (   0.0500000   0.4330127   0.1581161), wk =   0.0133333
        k(   12) = (   0.0500000   0.4330127   0.2635269), wk =   0.0133333
        k(   13) = (   0.0500000   0.5484828   0.0527054), wk =   0.0133333
        k(   14) = (   0.0500000   0.5484828   0.1581161), wk =   0.0133333
        k(   15) = (   0.0500000   0.5484828   0.2635269), wk =   0.0133333
        k(   16) = (   0.0500000  -0.4907477   0.0527054), wk =   0.0133333
        k(   17) = (   0.0500000  -0.4907477   0.1581161), wk =   0.0133333
        k(   18) = (   0.0500000  -0.4907477   0.2635269), wk =   0.0133333
        k(   19) = (   0.0500000  -0.3752777   0.0527054), wk =   0.0133333
        k(   20) = (   0.0500000  -0.3752777   0.1581161), wk =   0.0133333
        k(   21) = (   0.0500000  -0.3752777   0.2635269), wk =   0.0133333
        k(   22) = (   0.0500000  -0.2598076   0.0527054), wk =   0.0133333
        k(   23) = (   0.0500000  -0.2598076   0.1581161), wk =   0.0133333
        k(   24) = (   0.0500000  -0.2598076   0.2635269), wk =   0.0133333
        k(   25) = (   0.0500000  -0.1443376   0.0527054), wk =   0.0133333
        k(   26) = (   0.0500000  -0.1443376   0.1581161), wk =   0.0133333
        k(   27) = (   0.0500000  -0.1443376   0.2635269), wk =   0.0133333
        k(   28) = (   0.0500000  -0.0288675   0.0527054), wk =   0.0066667
        k(   29) = (   0.0500000  -0.0288675   0.1581161), wk =   0.0066667
        k(   30) = (   0.0500000  -0.0288675   0.2635269), wk =   0.0066667
        k(   31) = (   0.1500000   0.2598076   0.0527054), wk =   0.0066667
        k(   32) = (   0.1500000   0.2598076   0.1581161), wk =   0.0066667
        k(   33) = (   0.1500000   0.2598076   0.2635269), wk =   0.0066667
        k(   34) = (   0.1500000   0.3752777   0.0527054), wk =   0.0133333
        k(   35) = (   0.1500000   0.3752777   0.1581161), wk =   0.0133333
        k(   36) = (   0.1500000   0.3752777   0.2635269), wk =   0.0133333
        k(   37) = (   0.1500000   0.4907477   0.0527054), wk =   0.0133333
        k(   38) = (   0.1500000   0.4907477   0.1581161), wk =   0.0133333
        k(   39) = (   0.1500000   0.4907477   0.2635269), wk =   0.0133333
        k(   40) = (   0.1500000   0.6062178   0.0527054), wk =   0.0133333
        k(   41) = (   0.1500000   0.6062178   0.1581161), wk =   0.0133333
        k(   42) = (   0.1500000   0.6062178   0.2635269), wk =   0.0133333
        k(   43) = (   0.1500000  -0.4330127   0.0527054), wk =   0.0133333
        k(   44) = (   0.1500000  -0.4330127   0.1581161), wk =   0.0133333
        k(   45) = (   0.1500000  -0.4330127   0.2635269), wk =   0.0133333
        k(   46) = (   0.1500000  -0.3175426   0.0527054), wk =   0.0133333
        k(   47) = (   0.1500000  -0.3175426   0.1581161), wk =   0.0133333
        k(   48) = (   0.1500000  -0.3175426   0.2635269), wk =   0.0133333
        k(   49) = (   0.1500000  -0.2020726   0.0527054), wk =   0.0133333
        k(   50) = (   0.1500000  -0.2020726   0.1581161), wk =   0.0133333
        k(   51) = (   0.1500000  -0.2020726   0.2635269), wk =   0.0133333
        k(   52) = (   0.1500000  -0.0866025   0.0527054), wk =   0.0066667
        k(   53) = (   0.1500000  -0.0866025   0.1581161), wk =   0.0066667
        k(   54) = (   0.1500000  -0.0866025   0.2635269), wk =   0.0066667
        k(   55) = (   0.2500000   0.4330127   0.0527054), wk =   0.0066667
        k(   56) = (   0.2500000   0.4330127   0.1581161), wk =   0.0066667
        k(   57) = (   0.2500000   0.4330127   0.2635269), wk =   0.0066667
        k(   58) = (   0.2500000   0.5484828   0.0527054), wk =   0.0133333
        k(   59) = (   0.2500000   0.5484828   0.1581161), wk =   0.0133333
        k(   60) = (   0.2500000   0.5484828   0.2635269), wk =   0.0133333
[...]
        k(   76) = (   0.3500000   0.7216878   0.0527054), wk =   0.0133333
        k(   77) = (   0.3500000   0.7216878   0.1581161), wk =   0.0133333
        k(   78) = (   0.3500000   0.7216878   0.2635269), wk =   0.0133333
        k(   79) = (   0.3500000  -0.3175426   0.0527054), wk =   0.0133333
        k(   80) = (   0.3500000  -0.3175426   0.1581161), wk =   0.0133333
        k(   81) = (   0.3500000  -0.3175426   0.2635269), wk =   0.0133333
        k(   82) = (   0.3500000  -0.2020726   0.0527054), wk =   0.0066667
        k(   83) = (   0.3500000  -0.2020726   0.1581161), wk =   0.0066667
        k(   84) = (   0.3500000  -0.2020726   0.2635269), wk =   0.0066667
        k(   85) = (   0.4500000   0.7794229   0.0527054), wk =   0.0066667
        k(   86) = (   0.4500000   0.7794229   0.1581161), wk =   0.0066667
        k(   87) = (   0.4500000   0.7794229   0.2635269), wk =   0.0066667
        k(   88) = (   0.4500000  -0.2598076   0.0527054), wk =   0.0066667
        k(   89) = (   0.4500000  -0.2598076   0.1581161), wk =   0.0066667
        k(   90) = (   0.4500000  -0.2598076   0.2635269), wk =   0.0066667

     Initial potential from superposition of free atoms

     starting charge   21.95757, renormalised to   22.00000

     negative rho (up, down):  0.000E+00 5.858E-03
     Starting wfcs are   26 randomized atomic wfcs
     Checking if some PAW data can be deallocated...

     Self-consistent Calculation

     iteration #  1     ecut=    35.00 Ry     beta= 0.70
     Davidson diagonalization with overlap
     ethr =  1.00E-02,  avg # of iterations =  1.9

     total energy              =   -1143.69961548 Ry
     Harris-Foulkes estimate   =   -1141.90916898 Ry
     estimated scf accuracy    <       1.16953711 Ry

     total magnetization       =     4.59 Bohr mag/cell
     absolute magnetization    =     4.59 Bohr mag/cell

[...]

     Magnetic moment per site:
     atom:    1    charge:    9.5019    magn:    0.0239    constr:    0.0000
     atom:    2    charge:    9.5019    magn:    0.0239    constr:    0.0000

     End of self-consistent calculation

     Number of k-points >= 100: set verbosity='high' to print the bands.

     the Fermi energy is    10.4387 ev

!    total energy              =   -1144.07546549 Ry
     Harris-Foulkes estimate   =   -1144.07546233 Ry
     estimated scf accuracy    <       0.00000038 Ry

     total all-electron energy =    -46835.843346 Ry

     The total energy is the sum of the following terms:

     one-electron contribution =     -27.48534494 Ry
     hartree contribution      =      22.32671675 Ry
     xc contribution           =    -123.91751299 Ry
     ewald contribution        =    -116.51812664 Ry
     one-center paw contrib.   =    -898.48009279 Ry
     smearing contrib. (-TS)   =      -0.00110488 Ry

[...]

     convergence has been achieved in   9 iterations

     Forces acting on atoms (cartesian axes, Ry/au):

     atom    1 type  1   force =     0.00000000   -0.00000000    0.00000000
     atom    2 type  1   force =     0.00000000    0.00000000    0.00000000

     Total force =     0.000000     Total SCF correction =     0.000000

     Computing stress (Cartesian axis) and pressure

          total   stress  (Ry/bohr**3)                   (kbar)     P=    2.96
   0.00002735  -0.00000000   0.00000000          4.02     -0.00      0.00
  -0.00000000   0.00002735   0.00000000         -0.00      4.02      0.00
  -0.00000000   0.00000000   0.00000570         -0.00      0.00      0.84

     BFGS Geometry Optimization

     number of scf cycles    =   1
     number of bfgs steps    =   0

     enthalpy new            =   -1144.0754654928 Ry

     new trust radius        =       0.0028408350 bohr
     new conv_thr            =       0.0000010000 Ry

     new unit-cell volume =    432.13166 a.u.^3 (    64.03530 Ang^3 )
     density =      8.24236 g/cm^3

CELL_PARAMETERS (alat=  6.80490380)
   1.000683811   0.000000000  -0.000000000
  -0.500341905   0.866617601   0.000000000
   0.000000000   0.000000000   1.581341737

ATOMIC_POSITIONS (crystal)
Tb       0.333333333   0.666666667   0.250000000
Tb       0.666666667   0.333333333   0.750000000

     Writing output data file pw.save/
     NEW-OLD atomic charge density approx. for the potential
     extrapolated charge   22.03312, renormalised to   22.00000

[...]

     enthalpy old            =   -1144.0754654928 Ry
     enthalpy new            =   -1144.0754879486 Ry

     CASE: enthalpy_new < enthalpy_old

     WARNING: bfgs curvature condition failed, Theta= 0.840
     new trust radius        =       0.0031251412 bohr
     new conv_thr            =       0.0000000100 Ry

[...]

     Threshold (ethr) on eigenvalues was too large:
     Diagonalizing with lowered threshold

     Davidson diagonalization with overlap
     ethr =  3.08E-10,  avg # of iterations =  3.4

[...]

     number of scf cycles    =   9
     number of bfgs steps    =   8

     enthalpy old            =   -1144.0755441313 Ry
     enthalpy new            =   -1144.0755458048 Ry

     CASE: enthalpy_new < enthalpy_old

     new trust radius        =       0.0040065322 bohr
     new conv_thr            =       0.0000000100 Ry

     new unit-cell volume =    435.29010 a.u.^3 (    64.50334 Ang^3 )
     density =      8.18256 g/cm^3

[...]

ATOMIC_POSITIONS (crystal)
Tb       0.333333333   0.666666667   0.250000000
Tb       0.666666667   0.333333333   0.750000000

     Writing output data file pw.save/
     NEW-OLD atomic charge density approx. for the potential
     extrapolated charge   21.98033, renormalised to   22.00000

[...]

     Threshold (ethr) on eigenvalues was too large:
     Diagonalizing with lowered threshold

     Davidson diagonalization with overlap
     ethr =  3.61E-08,  avg # of iterations =  1.3

[...]

     bfgs converged in  10 scf cycles and   9 bfgs steps
     (criteria: energy <  1.0E-04 Ry, force <  1.0E-03Ry/Bohr, cell <  5.0E-01kbar)

     End of BFGS Geometry Optimization

     Final enthalpy =   -1144.0755469343 Ry
Begin final coordinates
     new unit-cell volume =    435.29010 a.u.^3 (    64.50334 Ang^3 )
     density =      8.18256 g/cm^3

CELL_PARAMETERS (alat=  6.80490380)
   1.005823843   0.000000000  -0.000000000
  -0.502911922   0.871069000  -0.000000000
  -0.000000000  -0.000000000   1.576661027

ATOMIC_POSITIONS (crystal)
Tb       0.333333333   0.666666667   0.250000000
Tb       0.666666667   0.333333333   0.750000000
End final coordinates

     Writing output data file pw.save/

     A final scf calculation at the relaxed structure.
     The G-vectors are recalculated for the final unit cell
     Results may differ from those at the preceding step.

     bravais-lattice index     =            0
     lattice parameter (alat)  =       6.8049  a.u.
     unit-cell volume          =     435.2901 (a.u.)^3
     number of atoms/cell      =            2
     number of atomic types    =            1
     number of electrons       =        22.00
     number of Kohn-Sham states=           15
     kinetic-energy cutoff     =      35.0000  Ry
     charge density cutoff     =     229.0000  Ry
     convergence threshold     =      1.0E-08
     mixing beta               =       0.7000
     number of iterations used =            8  plain     mixing
     Exchange-correlation      = SLA PW PBX PBC ( 1  4  3  4 0 0)

     celldm(1)=   6.804904  celldm(2)=   0.000000  celldm(3)=   0.000000
     celldm(4)=   0.000000  celldm(5)=   0.000000  celldm(6)=   0.000000

     crystal axes: (cart. coord. in units of alat)
               a(1) = (   1.005824   0.000000  -0.000000 )
               a(2) = (  -0.502912   0.871069  -0.000000 )
               a(3) = (  -0.000000  -0.000000   1.576661 )

     reciprocal axes: (cart. coord. in units 2 pi/alat)
               b(1) = (  0.994210  0.574007  0.000000 )
               b(2) = ( -0.000000  1.148015  0.000000 )
               b(3) = (  0.000000  0.000000  0.634252 )

     PseudoPot. # 1 for Tb read from file:
     ./potentials/Tb.pbe-spdn-kjpaw_psl.1.0.0.UPF
     MD5 check sum: 1d4feb5b01b570ab3d1af2cc1fee54c1
     Pseudo is Projector augmented-wave + core cor, Zval = 11.0
     Generated using "atomic" code by A. Dal Corso v.6.2.2
     Shape of augmentation charge: PSQ
     Using radial grid of 1263 points,  6 beta functions with:
                l(1) =   0
                l(2) =   0
                l(3) =   1
                l(4) =   1
                l(5) =   2
                l(6) =   2
     Q(r) pseudized with 0 coefficients

     atomic species   valence    mass     pseudopotential
        Tb            11.00   158.92500     Tb( 1.00)

     Starting magnetic structure
     atomic species   magnetization
        Tb           0.000

     24 Sym. Ops., with inversion, found (12 have fractional translation)

   Cartesian axes

     site n.     atom                  positions (alat units)
         1           Tb  tau(   1) = (  -0.0000000   0.5807127   0.3941653  )
         2           Tb  tau(   2) = (   0.5029119   0.2903563   1.1824958  )

     number of k points=    90  Methfessel-Paxton smearing, width (Ry)=  0.0200
                       cart. coord. in units 2pi/alat
        k(    1) = (   0.0497105   0.0861011   0.0528543), wk =   0.0066667
        k(    2) = (   0.0497105   0.0861011   0.1585629), wk =   0.0066667
        k(    3) = (   0.0497105   0.0861011   0.2642716), wk =   0.0066667
        k(    4) = (   0.0497105   0.2009026   0.0528543), wk =   0.0133333
        k(    5) = (   0.0497105   0.2009026   0.1585629), wk =   0.0133333
        k(    6) = (   0.0497105   0.2009026   0.2642716), wk =   0.0133333
        k(    7) = (   0.0497105   0.3157040   0.0528543), wk =   0.0133333
        k(    8) = (   0.0497105   0.3157040   0.1585629), wk =   0.0133333
        k(    9) = (   0.0497105   0.3157040   0.2642716), wk =   0.0133333
        k(   10) = (   0.0497105   0.4305055   0.0528543), wk =   0.0133333
        k(   11) = (   0.0497105   0.4305055   0.1585629), wk =   0.0133333
        k(   12) = (   0.0497105   0.4305055   0.2642716), wk =   0.0133333
        k(   13) = (   0.0497105   0.5453070   0.0528543), wk =   0.0133333
        k(   14) = (   0.0497105   0.5453070   0.1585629), wk =   0.0133333
        k(   15) = (   0.0497105   0.5453070   0.2642716), wk =   0.0133333
        k(   16) = (   0.0497105  -0.4879062   0.0528543), wk =   0.0133333
        k(   17) = (   0.0497105  -0.4879062   0.1585629), wk =   0.0133333
        k(   18) = (   0.0497105  -0.4879062   0.2642716), wk =   0.0133333
        k(   19) = (   0.0497105  -0.3731048   0.0528543), wk =   0.0133333
        k(   20) = (   0.0497105  -0.3731048   0.1585629), wk =   0.0133333
        k(   21) = (   0.0497105  -0.3731048   0.2642716), wk =   0.0133333
        k(   22) = (   0.0497105  -0.2583033   0.0528543), wk =   0.0133333
        k(   23) = (   0.0497105  -0.2583033   0.1585629), wk =   0.0133333
        k(   24) = (   0.0497105  -0.2583033   0.2642716), wk =   0.0133333
        k(   25) = (   0.0497105  -0.1435018   0.0528543), wk =   0.0133333
        k(   26) = (   0.0497105  -0.1435018   0.1585629), wk =   0.0133333
        k(   27) = (   0.0497105  -0.1435018   0.2642716), wk =   0.0133333
        k(   28) = (   0.0497105  -0.0287004   0.0528543), wk =   0.0066667
        k(   29) = (   0.0497105  -0.0287004   0.1585629), wk =   0.0066667
        k(   30) = (   0.0497105  -0.0287004   0.2642716), wk =   0.0066667
        k(   31) = (   0.1491315   0.2583033   0.0528543), wk =   0.0066667
        k(   32) = (   0.1491315   0.2583033   0.1585629), wk =   0.0066667
        k(   33) = (   0.1491315   0.2583033   0.2642716), wk =   0.0066667
        k(   34) = (   0.1491315   0.3731048   0.0528543), wk =   0.0133333
        k(   35) = (   0.1491315   0.3731048   0.1585629), wk =   0.0133333
        k(   36) = (   0.1491315   0.3731048   0.2642716), wk =   0.0133333
        k(   37) = (   0.1491315   0.4879062   0.0528543), wk =   0.0133333
        k(   38) = (   0.1491315   0.4879062   0.1585629), wk =   0.0133333
        k(   39) = (   0.1491315   0.4879062   0.2642716), wk =   0.0133333
        k(   40) = (   0.1491315   0.6027077   0.0528543), wk =   0.0133333
        k(   41) = (   0.1491315   0.6027077   0.1585629), wk =   0.0133333
        k(   42) = (   0.1491315   0.6027077   0.2642716), wk =   0.0133333
        k(   43) = (   0.1491315  -0.4305055   0.0528543), wk =   0.0133333
        k(   44) = (   0.1491315  -0.4305055   0.1585629), wk =   0.0133333
        k(   45) = (   0.1491315  -0.4305055   0.2642716), wk =   0.0133333
        k(   46) = (   0.1491315  -0.3157040   0.0528543), wk =   0.0133333
        k(   47) = (   0.1491315  -0.3157040   0.1585629), wk =   0.0133333
        k(   48) = (   0.1491315  -0.3157040   0.2642716), wk =   0.0133333
        k(   49) = (   0.1491315  -0.2009026   0.0528543), wk =   0.0133333
        k(   50) = (   0.1491315  -0.2009026   0.1585629), wk =   0.0133333
        k(   51) = (   0.1491315  -0.2009026   0.2642716), wk =   0.0133333
        k(   52) = (   0.1491315  -0.0861011   0.0528543), wk =   0.0066667
        k(   53) = (   0.1491315  -0.0861011   0.1585629), wk =   0.0066667
        k(   54) = (   0.1491315  -0.0861011   0.2642716), wk =   0.0066667
        k(   55) = (   0.2485525   0.4305055   0.0528543), wk =   0.0066667
        k(   56) = (   0.2485525   0.4305055   0.1585629), wk =   0.0066667
        k(   57) = (   0.2485525   0.4305055   0.2642716), wk =   0.0066667
        k(   58) = (   0.2485525   0.5453070   0.0528543), wk =   0.0133333
        k(   59) = (   0.2485525   0.5453070   0.1585629), wk =   0.0133333
        k(   60) = (   0.2485525   0.5453070   0.2642716), wk =   0.0133333
[...]
        k(   76) = (   0.3479735   0.7175092   0.0528543), wk =   0.0133333
        k(   77) = (   0.3479735   0.7175092   0.1585629), wk =   0.0133333
        k(   78) = (   0.3479735   0.7175092   0.2642716), wk =   0.0133333
        k(   79) = (   0.3479735  -0.3157040   0.0528543), wk =   0.0133333
        k(   80) = (   0.3479735  -0.3157040   0.1585629), wk =   0.0133333
        k(   81) = (   0.3479735  -0.3157040   0.2642716), wk =   0.0133333
        k(   82) = (   0.3479735  -0.2009026   0.0528543), wk =   0.0066667
        k(   83) = (   0.3479735  -0.2009026   0.1585629), wk =   0.0066667
        k(   84) = (   0.3479735  -0.2009026   0.2642716), wk =   0.0066667
        k(   85) = (   0.4473944   0.7749099   0.0528543), wk =   0.0066667
        k(   86) = (   0.4473944   0.7749099   0.1585629), wk =   0.0066667
        k(   87) = (   0.4473944   0.7749099   0.2642716), wk =   0.0066667
        k(   88) = (   0.4473944  -0.2583033   0.0528543), wk =   0.0066667
        k(   89) = (   0.4473944  -0.2583033   0.1585629), wk =   0.0066667
        k(   90) = (   0.4473944  -0.2583033   0.2642716), wk =   0.0066667

     Initial potential from superposition of free atoms

     starting charge   21.95757, renormalised to   22.00000
     Starting wfcs are   26 randomized atomic wfcs
     Checking if some PAW data can be deallocated...

     Self-consistent Calculation

[...]

     total energy              =   -1144.07555835 Ry
     Harris-Foulkes estimate   =   -1144.07555836 Ry
     estimated scf accuracy    <       0.00000002 Ry

[...]

     iteration #  6     ecut=    35.00 Ry     beta= 0.70
     Davidson diagonalization with overlap
     ethr =  1.06E-10,  avg # of iterations =  2.1

     Magnetic moment per site:
     atom:    1    charge:    9.4890    magn:   -0.0000    constr:    0.0000
     atom:    2    charge:    9.4890    magn:   -0.0000    constr:    0.0000

     End of self-consistent calculation

     Number of k-points >= 100: set verbosity='high' to print the bands.

     the Fermi energy is    10.3269 ev

!    total energy              =   -1144.07555836 Ry
     Harris-Foulkes estimate   =   -1144.07555836 Ry
     estimated scf accuracy    <          7.1E-10 Ry

     total all-electron energy =    -46835.843439 Ry

     The total energy is the sum of the following terms:

     one-electron contribution =     -27.99735125 Ry
     hartree contribution      =      22.47543705 Ry
     xc contribution           =    -123.90546408 Ry
     ewald contribution        =    -116.16706431 Ry
     one-center paw contrib.   =    -898.47995502 Ry
     smearing contrib. (-TS)   =      -0.00116075 Ry

     total magnetization       =    -0.00 Bohr mag/cell
     absolute magnetization    =     0.00 Bohr mag/cell

     convergence has been achieved in   6 iterations

     Forces acting on atoms (cartesian axes, Ry/au):

     atom    1 type  1   force =    -0.00000000    0.00000000    0.00000000
     atom    2 type  1   force =     0.00000000   -0.00000000   -0.00000000

     Total force =     0.000000     Total SCF correction =     0.000000

     Computing stress (Cartesian axis) and pressure

          total   stress  (Ry/bohr**3)                   (kbar)     P=   -0.09
  -0.00000078   0.00000000  -0.00000000         -0.11      0.00     -0.00
   0.00000000  -0.00000078   0.00000000          0.00     -0.11      0.00
   0.00000000  -0.00000000  -0.00000036          0.00     -0.00     -0.05

     Writing output data file pw.save/

     General routines

     Parallel routines

   This run was terminated on:   8: 2:23   7Nov2020

   JOB DONE.