     Program PWSCF v.6.4.1 starts on  7Nov2020 at  8:35: 6

     R & G space division:  proc/nbgrp/npool/nimage =       2
     Waiting for input...
     Reading input from standard input

     Current dimensions of program PWSCF are:
     Max number of different atomic species (ntypx) = 10
     Max number of k-points (npk) =  40000
     Max angular momentum in pseudopotentials (lmaxx) =  3
               file Tc.pbe-spn-kjpaw_psl.0.3.0.UPF: wavefunction(s)  4S 4P 4D renormalized

     Subspace diagonalization in iterative solution of the eigenvalue problem:
     a serial algorithm will be used

     Message from routine setup:
     DEPRECATED: symmetry with ibrav=0, use correct ibrav instead

     bravais-lattice index     =            0
     lattice parameter (alat)  =       5.2170  a.u.
     unit-cell volume          =     196.9366 (a.u.)^3
     number of atoms/cell      =            2
     number of atomic types    =            1
     number of electrons       =        30.00
     number of Kohn-Sham states=           19
     kinetic-energy cutoff     =      62.0000  Ry
     charge density cutoff     =     832.0000  Ry
     convergence threshold     =      1.0E-06
     mixing beta               =       0.7000
     number of iterations used =            8  plain     mixing
     Exchange-correlation      = SLA PW PBX PBC ( 1  4  3  4 0 0)
     nstep                     =           50

     celldm(1)=   5.217005  celldm(2)=   0.000000  celldm(3)=   0.000000
     celldm(4)=   0.000000  celldm(5)=   0.000000  celldm(6)=   0.000000

     crystal axes: (cart. coord. in units of alat)
               a(1) = (   1.000000   0.000000   0.000000 )
               a(2) = (  -0.500000   0.866025   0.000000 )
               a(3) = (   0.000000   0.000000   1.601519 )

     reciprocal axes: (cart. coord. in units 2 pi/alat)
               b(1) = (  1.000000  0.577350 -0.000000 )
               b(2) = (  0.000000  1.154701  0.000000 )
               b(3) = (  0.000000 -0.000000  0.624407 )

     PseudoPot. # 1 for Tc read from file:
     ./potentials/Tc.pbe-spn-kjpaw_psl.0.3.0.UPF
     MD5 check sum: 6b887da2b33a08677e7c7866b1e71ef9
     Pseudo is Projector augmented-wave + core cor, Zval = 15.0
     Generated using "atomic" code by A. Dal Corso v.6.2.2
     Shape of augmentation charge: PSQ
     Using radial grid of 1231 points,  6 beta functions with:
                l(1) =   0
                l(2) =   0
                l(3) =   1
                l(4) =   1
                l(5) =   2
                l(6) =   2
     Q(r) pseudized with 0 coefficients

     atomic species   valence    mass     pseudopotential
        Tc            15.00    98.00000     Tc( 1.00)

     Starting magnetic structure
     atomic species   magnetization
        Tc           1.000

     24 Sym. Ops., with inversion, found (12 have fractional translation)

   Cartesian axes

     site n.     atom                  positions (alat units)
         1           Tc  tau(   1) = (   0.5000000   0.2886751   1.2011393  )
         2           Tc  tau(   2) = (  -0.0000000   0.5773503   0.4003798  )

     number of k points=   126  Methfessel-Paxton smearing, width (Ry)=  0.0200

     Number of k-points >= 100: set verbosity='high' to print them.

     Check: negative core charge=   -0.000002

     Initial potential from superposition of free atoms

     starting charge   29.99874, renormalised to   30.00000

     negative rho (up, down):  0.000E+00 3.486E-01
     Starting wfcs are   26 randomized atomic wfcs
     Checking if some PAW data can be deallocated...

     Self-consistent Calculation

     iteration #  1     ecut=    62.00 Ry     beta= 0.70
     Davidson diagonalization with overlap
     ethr =  1.00E-02,  avg # of iterations =  1.9

     total energy              =    -791.39578738 Ry
     Harris-Foulkes estimate   =    -786.18209094 Ry
     estimated scf accuracy    <       3.51143092 Ry

     total magnetization       =     8.00 Bohr mag/cell
     absolute magnetization    =     8.26 Bohr mag/cell

[...]

     Magnetic moment per site:
     atom:    1    charge:   12.9662    magn:    0.0006    constr:    0.0000
     atom:    2    charge:   12.9662    magn:    0.0006    constr:    0.0000

     End of self-consistent calculation

     Number of k-points >= 100: set verbosity='high' to print the bands.

     the Fermi energy is    22.0505 ev

!    total energy              =    -792.61456150 Ry
     Harris-Foulkes estimate   =    -792.61456122 Ry
     estimated scf accuracy    <       0.00000022 Ry

     total all-electron energy =    -17144.035101 Ry

     The total energy is the sum of the following terms:

     one-electron contribution =     -43.40406482 Ry
     hartree contribution      =      45.47243760 Ry
     xc contribution           =     -76.87442750 Ry
     ewald contribution        =    -281.43387632 Ry
     one-center paw contrib.   =    -436.37537225 Ry
     smearing contrib. (-TS)   =       0.00074179 Ry

[...]

     convergence has been achieved in   8 iterations

     Forces acting on atoms (cartesian axes, Ry/au):

     atom    1 type  1   force =     0.00000000    0.00000000    0.00000000
     atom    2 type  1   force =     0.00000000    0.00000000    0.00000000

     Total force =     0.000000     Total SCF correction =     0.000000

     Computing stress (Cartesian axis) and pressure

          total   stress  (Ry/bohr**3)                   (kbar)     P=  -29.11
  -0.00020269  -0.00000000   0.00000000        -29.82     -0.00      0.00
   0.00000000  -0.00020269  -0.00000000          0.00    -29.82     -0.00
   0.00000000  -0.00000000  -0.00018833          0.00     -0.00    -27.70

     BFGS Geometry Optimization

     number of scf cycles    =   1
     number of bfgs steps    =   0

     enthalpy new            =    -792.6145615005 Ry

     new trust radius        =       0.0142220924 bohr
     new conv_thr            =       0.0000010000 Ry

     new unit-cell volume =    194.02797 a.u.^3 (    28.75198 Ang^3 )
     density =     11.31976 g/cm^3

CELL_PARAMETERS (alat=  5.21700473)
   0.994932774   0.000000000   0.000000000
  -0.497466387   0.861637057  -0.000000000
   0.000000000  -0.000000000   1.593978802

ATOMIC_POSITIONS (crystal)
Tc       0.666666667   0.333333333   0.750000000
Tc       0.333333333   0.666666667   0.250000000

     Writing output data file pw.save/
     NEW-OLD atomic charge density approx. for the potential

     Check: negative core charge=   -0.000002
     extrapolated charge   29.55029, renormalised to   30.00000

[...]

     enthalpy old            =    -792.6145615005 Ry
     enthalpy new            =    -792.6147396466 Ry

     CASE: enthalpy_new < enthalpy_old

[...]

     number of scf cycles    =   4
     number of bfgs steps    =   3

     enthalpy old            =    -792.6147777606 Ry
     enthalpy new            =    -792.6147790024 Ry

     CASE: enthalpy_new < enthalpy_old

     new trust radius        =       0.0002491067 bohr
     new conv_thr            =       0.0000000100 Ry

     new unit-cell volume =    194.87321 a.u.^3 (    28.87723 Ang^3 )
     density =     11.27067 g/cm^3

[...]

ATOMIC_POSITIONS (crystal)
Tc       0.666666667   0.333333333   0.750000000
Tc       0.333333333   0.666666667   0.250000000

     Writing output data file pw.save/
     NEW-OLD atomic charge density approx. for the potential

     Check: negative core charge=   -0.000002
     extrapolated charge   29.99436, renormalised to   30.00000

[...]

     Threshold (ethr) on eigenvalues was too large:
     Diagonalizing with lowered threshold

     Davidson diagonalization with overlap
     ethr =  8.96E-09,  avg # of iterations =  1.0

[...]

Begin final coordinates
     new unit-cell volume =    194.87321 a.u.^3 (    28.87723 Ang^3 )
     density =     11.27067 g/cm^3

[...]

ATOMIC_POSITIONS (crystal)
Tc       0.666666667   0.333333333   0.750000000
Tc       0.333333333   0.666666667   0.250000000
End final coordinates

     Writing output data file pw.save/

     lsda relaxation :  a final configuration with zero
                        absolute magnetization has been found

     the program is checking if it is really the minimum energy structure
     by performing a new scf iteration without any "electronic" history

[...]

     starting charge   29.99874, renormalised to   30.00000

     negative rho (up, down):  0.000E+00 3.485E-01

[...]

     bfgs converged in   5 scf cycles and   4 bfgs steps
     (criteria: energy <  1.0E-04 Ry, force <  1.0E-03Ry/Bohr, cell <  5.0E-01kbar)

     End of BFGS Geometry Optimization

     Final enthalpy =    -792.6147790374 Ry
Begin final coordinates
     new unit-cell volume =    194.87321 a.u.^3 (    28.87723 Ang^3 )
     density =     11.27067 g/cm^3

CELL_PARAMETERS (alat=  5.21700473)
   0.996248379   0.000000000   0.000000000
  -0.498124190   0.862776405  -0.000000000
  -0.000000000  -0.000000000   1.596697157

ATOMIC_POSITIONS (crystal)
Tc       0.666666667   0.333333333   0.750000000
Tc       0.333333333   0.666666667   0.250000000
End final coordinates

[...]

     A final scf calculation at the relaxed structure.
     The G-vectors are recalculated for the final unit cell
     Results may differ from those at the preceding step.

     bravais-lattice index     =            0
     lattice parameter (alat)  =       5.2170  a.u.
     unit-cell volume          =     194.8732 (a.u.)^3
     number of atoms/cell      =            2
     number of atomic types    =            1
     number of electrons       =        30.00
     number of Kohn-Sham states=           19
     kinetic-energy cutoff     =      62.0000  Ry
     charge density cutoff     =     832.0000  Ry
     convergence threshold     =      1.0E-08
     mixing beta               =       0.7000
     number of iterations used =            8  plain     mixing
     Exchange-correlation      = SLA PW PBX PBC ( 1  4  3  4 0 0)

     celldm(1)=   5.217005  celldm(2)=   0.000000  celldm(3)=   0.000000
     celldm(4)=   0.000000  celldm(5)=   0.000000  celldm(6)=   0.000000

     crystal axes: (cart. coord. in units of alat)
               a(1) = (   0.996248   0.000000   0.000000 )
               a(2) = (  -0.498124   0.862776  -0.000000 )
               a(3) = (  -0.000000  -0.000000   1.596697 )

     reciprocal axes: (cart. coord. in units 2 pi/alat)
               b(1) = (  1.003766  0.579524  0.000000 )
               b(2) = ( -0.000000  1.159049  0.000000 )
               b(3) = ( -0.000000 -0.000000  0.626293 )

     PseudoPot. # 1 for Tc read from file:
     ./potentials/Tc.pbe-spn-kjpaw_psl.0.3.0.UPF
     MD5 check sum: 6b887da2b33a08677e7c7866b1e71ef9
     Pseudo is Projector augmented-wave + core cor, Zval = 15.0
     Generated using "atomic" code by A. Dal Corso v.6.2.2
     Shape of augmentation charge: PSQ
     Using radial grid of 1231 points,  6 beta functions with:
                l(1) =   0
                l(2) =   0
                l(3) =   1
                l(4) =   1
                l(5) =   2
                l(6) =   2
     Q(r) pseudized with 0 coefficients

     atomic species   valence    mass     pseudopotential
        Tc            15.00    98.00000     Tc( 1.00)

     Starting magnetic structure
     atomic species   magnetization
        Tc          -0.000

     24 Sym. Ops., with inversion, found (12 have fractional translation)

   Cartesian axes

     site n.     atom                  positions (alat units)
         1           Tc  tau(   1) = (   0.4981242   0.2875921   1.1975229  )
         2           Tc  tau(   2) = (  -0.0000000   0.5751843   0.3991743  )

     number of k points=   126  Methfessel-Paxton smearing, width (Ry)=  0.0200

     Number of k-points >= 100: set verbosity='high' to print them.

     Check: negative core charge=   -0.000002

     Initial potential from superposition of free atoms

     starting charge   29.99874, renormalised to   30.00000
     Starting wfcs are   26 randomized atomic wfcs
     Checking if some PAW data can be deallocated...

     Self-consistent Calculation

[...]

     total energy              =    -792.61475317 Ry
     Harris-Foulkes estimate   =    -792.61475319 Ry
     estimated scf accuracy    <       0.00000015 Ry

[...]

     iteration #  6     ecut=    62.00 Ry     beta= 0.70
     Davidson diagonalization with overlap
     ethr =  4.85E-10,  avg # of iterations =  2.1

     Magnetic moment per site:
     atom:    1    charge:   12.9855    magn:   -0.0000    constr:    0.0000
     atom:    2    charge:   12.9855    magn:   -0.0000    constr:    0.0000

     End of self-consistent calculation

     Number of k-points >= 100: set verbosity='high' to print the bands.

     the Fermi energy is    22.3316 ev

!    total energy              =    -792.61475320 Ry
     Harris-Foulkes estimate   =    -792.61475320 Ry
     estimated scf accuracy    <          6.0E-09 Ry

     total all-electron energy =    -17144.035293 Ry

     The total energy is the sum of the following terms:

     one-electron contribution =     -41.98286004 Ry
     hartree contribution      =      45.06963779 Ry
     xc contribution           =     -76.90126299 Ry
     ewald contribution        =    -282.42488638 Ry
     one-center paw contrib.   =    -436.37610820 Ry
     smearing contrib. (-TS)   =       0.00072662 Ry

     total magnetization       =    -0.00 Bohr mag/cell
     absolute magnetization    =     0.00 Bohr mag/cell

     convergence has been achieved in   6 iterations

     Forces acting on atoms (cartesian axes, Ry/au):

     atom    1 type  1   force =    -0.00000000   -0.00000000   -0.00000000
     atom    2 type  1   force =     0.00000000    0.00000000    0.00000000

     Total force =     0.000000     Total SCF correction =     0.000000

     Computing stress (Cartesian axis) and pressure

          total   stress  (Ry/bohr**3)                   (kbar)     P=    0.67
   0.00000466  -0.00000000  -0.00000000          0.69     -0.00     -0.00
  -0.00000000   0.00000466   0.00000000         -0.00      0.69      0.00
  -0.00000000   0.00000000   0.00000436         -0.00      0.00      0.64

     Writing output data file pw.save/

     General routines

     Parallel routines

   This run was terminated on:   9: 7:50   7Nov2020

   JOB DONE.