     Program PWSCF v.6.4.1 starts on  7Nov2020 at  9:22:36

     R & G space division:  proc/nbgrp/npool/nimage =       2
     Waiting for input...
     Reading input from standard input

     Current dimensions of program PWSCF are:
     Max number of different atomic species (ntypx) = 10
     Max number of k-points (npk) =  40000
     Max angular momentum in pseudopotentials (lmaxx) =  3
               file Tl.pbe-dn-kjpaw_psl.1.0.0.UPF: wavefunction(s)  6S 5D renormalized

     Subspace diagonalization in iterative solution of the eigenvalue problem:
     a serial algorithm will be used

     Message from routine setup:
     DEPRECATED: symmetry with ibrav=0, use correct ibrav instead

     bravais-lattice index     =            0
     lattice parameter (alat)  =       6.7065  a.u.
     unit-cell volume          =     422.3875 (a.u.)^3
     number of atoms/cell      =            2
     number of atomic types    =            1
     number of electrons       =        26.00
     number of Kohn-Sham states=           17
     kinetic-energy cutoff     =      45.0000  Ry
     charge density cutoff     =     210.0000  Ry
     convergence threshold     =      1.0E-06
     mixing beta               =       0.7000
     number of iterations used =            8  plain     mixing
     Exchange-correlation      = SLA PW PBX PBC ( 1  4  3  4 0 0)
     nstep                     =           50

     celldm(1)=   6.706487  celldm(2)=   0.000000  celldm(3)=   0.000000
     celldm(4)=   0.000000  celldm(5)=   0.000000  celldm(6)=   0.000000

     crystal axes: (cart. coord. in units of alat)
               a(1) = (   1.000000   0.000000   0.000000 )
               a(2) = (  -0.500000   0.866025   0.000000 )
               a(3) = (   0.000000   0.000000   1.616945 )

     reciprocal axes: (cart. coord. in units 2 pi/alat)
               b(1) = (  1.000000  0.577350 -0.000000 )
               b(2) = (  0.000000  1.154701  0.000000 )
               b(3) = (  0.000000 -0.000000  0.618450 )

     PseudoPot. # 1 for Tl read from file:
     ./potentials/Tl.pbe-dn-kjpaw_psl.1.0.0.UPF
     MD5 check sum: a466e64b1c697a8633fd1b75b6d75f1f
     Pseudo is Projector augmented-wave + core cor, Zval = 13.0
     Generated using "atomic" code by A. Dal Corso v.6.2.2
     Shape of augmentation charge: PSQ
     Using radial grid of 1281 points,  6 beta functions with:
                l(1) =   0
                l(2) =   0
                l(3) =   1
                l(4) =   1
                l(5) =   2
                l(6) =   2
     Q(r) pseudized with 0 coefficients

     atomic species   valence    mass     pseudopotential
        Tl            13.00   204.38350     Tl( 1.00)

     Starting magnetic structure
     atomic species   magnetization
        Tl           1.000

     24 Sym. Ops., with inversion, found (12 have fractional translation)

   Cartesian axes

     site n.     atom                  positions (alat units)
         1           Tl  tau(   1) = (   0.5000000   0.2886751   0.4042362  )
         2           Tl  tau(   2) = (  -0.0000000   0.5773503   1.2127085  )

     number of k points=    60  Methfessel-Paxton smearing, width (Ry)=  0.0200
                       cart. coord. in units 2pi/alat
        k(    1) = (   0.0500000   0.0866025   0.0773063), wk =   0.0100000
        k(    2) = (   0.0500000   0.0866025   0.2319189), wk =   0.0100000
        k(    3) = (   0.0500000   0.2020726   0.0773063), wk =   0.0200000
        k(    4) = (   0.0500000   0.2020726   0.2319189), wk =   0.0200000
        k(    5) = (   0.0500000   0.3175426   0.0773063), wk =   0.0200000
        k(    6) = (   0.0500000   0.3175426   0.2319189), wk =   0.0200000
        k(    7) = (   0.0500000   0.4330127   0.0773063), wk =   0.0200000
        k(    8) = (   0.0500000   0.4330127   0.2319189), wk =   0.0200000
        k(    9) = (   0.0500000   0.5484828   0.0773063), wk =   0.0200000
        k(   10) = (   0.0500000   0.5484828   0.2319189), wk =   0.0200000
        k(   11) = (   0.0500000  -0.4907477   0.0773063), wk =   0.0200000
        k(   12) = (   0.0500000  -0.4907477   0.2319189), wk =   0.0200000
        k(   13) = (   0.0500000  -0.3752777   0.0773063), wk =   0.0200000
        k(   14) = (   0.0500000  -0.3752777   0.2319189), wk =   0.0200000
        k(   15) = (   0.0500000  -0.2598076   0.0773063), wk =   0.0200000
        k(   16) = (   0.0500000  -0.2598076   0.2319189), wk =   0.0200000
        k(   17) = (   0.0500000  -0.1443376   0.0773063), wk =   0.0200000
        k(   18) = (   0.0500000  -0.1443376   0.2319189), wk =   0.0200000
        k(   19) = (   0.0500000  -0.0288675   0.0773063), wk =   0.0100000
        k(   20) = (   0.0500000  -0.0288675   0.2319189), wk =   0.0100000
        k(   21) = (   0.1500000   0.2598076   0.0773063), wk =   0.0100000
        k(   22) = (   0.1500000   0.2598076   0.2319189), wk =   0.0100000
        k(   23) = (   0.1500000   0.3752777   0.0773063), wk =   0.0200000
        k(   24) = (   0.1500000   0.3752777   0.2319189), wk =   0.0200000
        k(   25) = (   0.1500000   0.4907477   0.0773063), wk =   0.0200000
        k(   26) = (   0.1500000   0.4907477   0.2319189), wk =   0.0200000
        k(   27) = (   0.1500000   0.6062178   0.0773063), wk =   0.0200000
        k(   28) = (   0.1500000   0.6062178   0.2319189), wk =   0.0200000
        k(   29) = (   0.1500000  -0.4330127   0.0773063), wk =   0.0200000
        k(   30) = (   0.1500000  -0.4330127   0.2319189), wk =   0.0200000
        k(   31) = (   0.1500000  -0.3175426   0.0773063), wk =   0.0200000
        k(   32) = (   0.1500000  -0.3175426   0.2319189), wk =   0.0200000
        k(   33) = (   0.1500000  -0.2020726   0.0773063), wk =   0.0200000
        k(   34) = (   0.1500000  -0.2020726   0.2319189), wk =   0.0200000
        k(   35) = (   0.1500000  -0.0866025   0.0773063), wk =   0.0100000
        k(   36) = (   0.1500000  -0.0866025   0.2319189), wk =   0.0100000
        k(   37) = (   0.2500000   0.4330127   0.0773063), wk =   0.0100000
        k(   38) = (   0.2500000   0.4330127   0.2319189), wk =   0.0100000
        k(   39) = (   0.2500000   0.5484828   0.0773063), wk =   0.0200000
        k(   40) = (   0.2500000   0.5484828   0.2319189), wk =   0.0200000
        k(   41) = (   0.2500000   0.6639528   0.0773063), wk =   0.0200000
        k(   42) = (   0.2500000   0.6639528   0.2319189), wk =   0.0200000
        k(   43) = (   0.2500000  -0.3752777   0.0773063), wk =   0.0200000
        k(   44) = (   0.2500000  -0.3752777   0.2319189), wk =   0.0200000
        k(   45) = (   0.2500000  -0.2598076   0.0773063), wk =   0.0200000
        k(   46) = (   0.2500000  -0.2598076   0.2319189), wk =   0.0200000
        k(   47) = (   0.2500000  -0.1443376   0.0773063), wk =   0.0100000
        k(   48) = (   0.2500000  -0.1443376   0.2319189), wk =   0.0100000
        k(   49) = (   0.3500000   0.6062178   0.0773063), wk =   0.0100000
        k(   50) = (   0.3500000   0.6062178   0.2319189), wk =   0.0100000
        k(   51) = (   0.3500000   0.7216878   0.0773063), wk =   0.0200000
        k(   52) = (   0.3500000   0.7216878   0.2319189), wk =   0.0200000
        k(   53) = (   0.3500000  -0.3175426   0.0773063), wk =   0.0200000
        k(   54) = (   0.3500000  -0.3175426   0.2319189), wk =   0.0200000
        k(   55) = (   0.3500000  -0.2020726   0.0773063), wk =   0.0100000
        k(   56) = (   0.3500000  -0.2020726   0.2319189), wk =   0.0100000
        k(   57) = (   0.4500000   0.7794229   0.0773063), wk =   0.0100000
        k(   58) = (   0.4500000   0.7794229   0.2319189), wk =   0.0100000
        k(   59) = (   0.4500000  -0.2598076   0.0773063), wk =   0.0100000
        k(   60) = (   0.4500000  -0.2598076   0.2319189), wk =   0.0100000

     Initial potential from superposition of free atoms

     starting charge   25.99026, renormalised to   26.00000

     negative rho (up, down):  0.000E+00 9.078E-02
     Starting wfcs are   18 randomized atomic wfcs
     Checking if some PAW data can be deallocated...

     Self-consistent Calculation

     iteration #  1     ecut=    45.00 Ry     beta= 0.70
     Davidson diagonalization with overlap
     ethr =  1.00E-02,  avg # of iterations =  2.8

     total energy              =   -1673.14310796 Ry
     Harris-Foulkes estimate   =   -1670.18116600 Ry
     estimated scf accuracy    <       2.43427395 Ry

     total magnetization       =     1.99 Bohr mag/cell
     absolute magnetization    =     1.99 Bohr mag/cell

[...]

     Magnetic moment per site:
     atom:    1    charge:   11.9350    magn:    0.0001    constr:    0.0000
     atom:    2    charge:   11.9350    magn:    0.0001    constr:    0.0000

     End of self-consistent calculation

     Number of k-points >= 100: set verbosity='high' to print the bands.

     the Fermi energy is     9.4510 ev

!    total energy              =   -1673.54241641 Ry
     Harris-Foulkes estimate   =   -1673.54241632 Ry
     estimated scf accuracy    <       0.00000001 Ry

     total all-electron energy =    -80984.111469 Ry

     The total energy is the sum of the following terms:

     one-electron contribution =     -41.23651703 Ry
     hartree contribution      =      45.38515358 Ry
     xc contribution           =     -64.92955755 Ry
     ewald contribution        =    -163.92213668 Ry
     one-center paw contrib.   =   -1448.83955150 Ry
     smearing contrib. (-TS)   =       0.00019277 Ry

[...]

     convergence has been achieved in   7 iterations

     Forces acting on atoms (cartesian axes, Ry/au):

     atom    1 type  1   force =     0.00000000   -0.00000000    0.00000000
     atom    2 type  1   force =    -0.00000000    0.00000000    0.00000000

     Total force =     0.000000     Total SCF correction =     0.000000

     Computing stress (Cartesian axis) and pressure

          total   stress  (Ry/bohr**3)                   (kbar)     P=   -3.57
   0.00001143  -0.00000000   0.00000000          1.68     -0.00      0.00
  -0.00000000   0.00001143   0.00000000         -0.00      1.68      0.00
  -0.00000000   0.00000000  -0.00009576         -0.00      0.00    -14.09

     BFGS Geometry Optimization

     number of scf cycles    =   1
     number of bfgs steps    =   0

     enthalpy new            =   -1673.5424164094 Ry

     new trust radius        =       0.0098401991 bohr
     new conv_thr            =       0.0000010000 Ry

     new unit-cell volume =    421.61719 a.u.^3 (    62.47722 Ang^3 )
     density =     10.86434 g/cm^3

CELL_PARAMETERS (alat=  6.70648687)
   1.000285828   0.000000000  -0.000000000
  -0.500142914   0.866272938   0.000000000
   0.000000000   0.000000000   1.613073695

ATOMIC_POSITIONS (crystal)
Tl       0.666666667   0.333333333   0.250000000
Tl       0.333333333   0.666666667   0.750000000

     Writing output data file pw.save/
     NEW-OLD atomic charge density approx. for the potential
     extrapolated charge   25.95252, renormalised to   26.00000

[...]

     enthalpy old            =   -1673.5424164094 Ry
     enthalpy new            =   -1673.5425102696 Ry

     CASE: enthalpy_new < enthalpy_old

[...]

     Threshold (ethr) on eigenvalues was too large:
     Diagonalizing with lowered threshold

     Davidson diagonalization with overlap
     ethr =  2.24E-08,  avg # of iterations =  1.0

[...]

     WARNING: bfgs curvature condition failed, Theta= 0.909
     new trust radius        =       0.0017263900 bohr
     new conv_thr            =       0.0000000100 Ry

[...]

     WARNING: bfgs curvature condition failed, Theta= 0.047
     new trust radius        =       0.0011209941 bohr
     new conv_thr            =       0.0000000100 Ry

[...]

     Writing output data file pw.save/
     NEW-OLD atomic charge density approx. for the potential
     extrapolated charge   26.00850, renormalised to   26.00000

[...]

     Threshold (ethr) on eigenvalues was too large:
     Diagonalizing with lowered threshold

     Davidson diagonalization with overlap
     ethr =  2.19E-08,  avg # of iterations =  1.0

[...]

Begin final coordinates
     new unit-cell volume =    417.66945 a.u.^3 (    61.89223 Ang^3 )
     density =     10.96702 g/cm^3

[...]

ATOMIC_POSITIONS (crystal)
Tl       0.666666667   0.333333333   0.250000000
Tl       0.333333333   0.666666667   0.750000000
End final coordinates

     Writing output data file pw.save/

     lsda relaxation :  a final configuration with zero
                        absolute magnetization has been found

     the program is checking if it is really the minimum energy structure
     by performing a new scf iteration without any "electronic" history

[...]

     negative rho (up, down):  0.000E+00 8.623E-02

[...]

     WARNING: integrated charge=    26.00022750, expected=    26.00000000

[...]

     CASE: enthalpy_new < enthalpy_old

     new trust radius        =       0.0013908974 bohr
     new conv_thr            =       0.0000000100 Ry

[...]

     CASE: enthalpy_new > enthalpy_old

     new trust radius        =       0.0000000123 bohr

     trust_radius < trust_radius_min

     resetting bfgs history

     new conv_thr            =       0.0000000100 Ry

[...]

     number of scf cycles    =  21
     number of bfgs steps    =  19

     enthalpy old            =   -1673.8326002446 Ry
     enthalpy new            =   -1673.0539881459 Ry

     CASE: enthalpy_new > enthalpy_old

     new trust radius        =       0.0000000190 bohr

     trust_radius < trust_radius_min

     resetting bfgs history

     Message from routine bfgs:
     history already reset at previous step: stopping
     new conv_thr            =       0.0000000100 Ry

     new unit-cell volume =    417.26302 a.u.^3 (    61.83200 Ang^3 )
     density =     10.97771 g/cm^3

[...]

ATOMIC_POSITIONS (crystal)
Tl       0.666666667   0.333333333   0.250000000
Tl       0.333333333   0.666666667   0.750000000

[...]

     lsda relaxation :  a final configuration with zero
                        absolute magnetization has been found

     the program is checking if it is really the minimum energy structure
     by performing a new scf iteration without any "electronic" history

[...]

     starting charge   25.99026, renormalised to   26.00000

     negative rho (up, down):  0.000E+00 8.623E-02

[...]

     WARNING: integrated charge=    25.99946249, expected=    26.00000000

[...]

     Message from routine bfgs:
     history already reset at previous step: stopping

     bfgs converged in  22 scf cycles and  19 bfgs steps
     (criteria: energy <  1.0E-04 Ry, force <  1.0E-03Ry/Bohr, cell <  5.0E-01kbar)

     End of BFGS Geometry Optimization

     Final enthalpy =   -1673.0537031500 Ry
Begin final coordinates
     new unit-cell volume =    417.26302 a.u.^3 (    61.83200 Ang^3 )
     density =     10.97771 g/cm^3

CELL_PARAMETERS (alat=  6.70648687)
   1.007268098  -0.000000000   0.000000000
  -0.503634049   0.872319761   0.000000000
   0.000000000   0.000000000   1.574359367

ATOMIC_POSITIONS (crystal)
Tl       0.666666667   0.333333333   0.250000000
Tl       0.333333333   0.666666667   0.750000000
End final coordinates

[...]

     A final scf calculation at the relaxed structure.
     The G-vectors are recalculated for the final unit cell
     Results may differ from those at the preceding step.

     bravais-lattice index     =            0
     lattice parameter (alat)  =       6.7065  a.u.
     unit-cell volume          =     417.2630 (a.u.)^3
     number of atoms/cell      =            2
     number of atomic types    =            1
     number of electrons       =        26.00
     number of Kohn-Sham states=           17
     kinetic-energy cutoff     =      45.0000  Ry
     charge density cutoff     =     210.0000  Ry
     convergence threshold     =      1.0E-08
     mixing beta               =       0.7000
     number of iterations used =            8  plain     mixing
     Exchange-correlation      = SLA PW PBX PBC ( 1  4  3  4 0 0)

     celldm(1)=   6.706487  celldm(2)=   0.000000  celldm(3)=   0.000000
     celldm(4)=   0.000000  celldm(5)=   0.000000  celldm(6)=   0.000000

     crystal axes: (cart. coord. in units of alat)
               a(1) = (   1.007268  -0.000000   0.000000 )
               a(2) = (  -0.503634   0.872320   0.000000 )
               a(3) = (   0.000000   0.000000   1.574359 )

     reciprocal axes: (cart. coord. in units 2 pi/alat)
               b(1) = (  0.992784  0.573184 -0.000000 )
               b(2) = (  0.000000  1.146369 -0.000000 )
               b(3) = ( -0.000000 -0.000000  0.635179 )

     PseudoPot. # 1 for Tl read from file:
     ./potentials/Tl.pbe-dn-kjpaw_psl.1.0.0.UPF
     MD5 check sum: a466e64b1c697a8633fd1b75b6d75f1f
     Pseudo is Projector augmented-wave + core cor, Zval = 13.0
     Generated using "atomic" code by A. Dal Corso v.6.2.2
     Shape of augmentation charge: PSQ
     Using radial grid of 1281 points,  6 beta functions with:
                l(1) =   0
                l(2) =   0
                l(3) =   1
                l(4) =   1
                l(5) =   2
                l(6) =   2
     Q(r) pseudized with 0 coefficients

     atomic species   valence    mass     pseudopotential
        Tl            13.00   204.38350     Tl( 1.00)

     Starting magnetic structure
     atomic species   magnetization
        Tl           0.000

     24 Sym. Ops., with inversion, found (12 have fractional translation)

   Cartesian axes

     site n.     atom                  positions (alat units)
         1           Tl  tau(   1) = (   0.5036340   0.2907733   0.3935898  )
         2           Tl  tau(   2) = (  -0.0000000   0.5815465   1.1807695  )

     number of k points=    60  Methfessel-Paxton smearing, width (Ry)=  0.0200
                       cart. coord. in units 2pi/alat
        k(    1) = (   0.0496183   0.0859413   0.0793871), wk =   0.0100000
        k(    2) = (   0.0496183   0.0859413   0.2381614), wk =   0.0100000
        k(    3) = (   0.0496183   0.2005298   0.0793871), wk =   0.0200000
        k(    4) = (   0.0496183   0.2005298   0.2381614), wk =   0.0200000
        k(    5) = (   0.0496183   0.3151183   0.0793871), wk =   0.0200000
        k(    6) = (   0.0496183   0.3151183   0.2381614), wk =   0.0200000
        k(    7) = (   0.0496183   0.4297067   0.0793871), wk =   0.0200000
        k(    8) = (   0.0496183   0.4297067   0.2381614), wk =   0.0200000
        k(    9) = (   0.0496183   0.5442952   0.0793871), wk =   0.0200000
        k(   10) = (   0.0496183   0.5442952   0.2381614), wk =   0.0200000
        k(   11) = (   0.0496183  -0.4870009   0.0793871), wk =   0.0200000
        k(   12) = (   0.0496183  -0.4870009   0.2381614), wk =   0.0200000
        k(   13) = (   0.0496183  -0.3724125   0.0793871), wk =   0.0200000
        k(   14) = (   0.0496183  -0.3724125   0.2381614), wk =   0.0200000
        k(   15) = (   0.0496183  -0.2578240   0.0793871), wk =   0.0200000
        k(   16) = (   0.0496183  -0.2578240   0.2381614), wk =   0.0200000
        k(   17) = (   0.0496183  -0.1432356   0.0793871), wk =   0.0200000
        k(   18) = (   0.0496183  -0.1432356   0.2381614), wk =   0.0200000
        k(   19) = (   0.0496183  -0.0286471   0.0793871), wk =   0.0100000
        k(   20) = (   0.0496183  -0.0286471   0.2381614), wk =   0.0100000
        k(   21) = (   0.1488548   0.2578240   0.0793871), wk =   0.0100000
        k(   22) = (   0.1488548   0.2578240   0.2381614), wk =   0.0100000
        k(   23) = (   0.1488548   0.3724125   0.0793871), wk =   0.0200000
        k(   24) = (   0.1488548   0.3724125   0.2381614), wk =   0.0200000
        k(   25) = (   0.1488548   0.4870009   0.0793871), wk =   0.0200000
        k(   26) = (   0.1488548   0.4870009   0.2381614), wk =   0.0200000
        k(   27) = (   0.1488548   0.6015894   0.0793871), wk =   0.0200000
        k(   28) = (   0.1488548   0.6015894   0.2381614), wk =   0.0200000
        k(   29) = (   0.1488548  -0.4297067   0.0793871), wk =   0.0200000
        k(   30) = (   0.1488548  -0.4297067   0.2381614), wk =   0.0200000
        k(   31) = (   0.1488548  -0.3151183   0.0793871), wk =   0.0200000
        k(   32) = (   0.1488548  -0.3151183   0.2381614), wk =   0.0200000
        k(   33) = (   0.1488548  -0.2005298   0.0793871), wk =   0.0200000
        k(   34) = (   0.1488548  -0.2005298   0.2381614), wk =   0.0200000
        k(   35) = (   0.1488548  -0.0859413   0.0793871), wk =   0.0100000
        k(   36) = (   0.1488548  -0.0859413   0.2381614), wk =   0.0100000
        k(   37) = (   0.2480913   0.4297067   0.0793871), wk =   0.0100000
        k(   38) = (   0.2480913   0.4297067   0.2381614), wk =   0.0100000
        k(   39) = (   0.2480913   0.5442952   0.0793871), wk =   0.0200000
        k(   40) = (   0.2480913   0.5442952   0.2381614), wk =   0.0200000
        k(   41) = (   0.2480913   0.6588836   0.0793871), wk =   0.0200000
        k(   42) = (   0.2480913   0.6588836   0.2381614), wk =   0.0200000
        k(   43) = (   0.2480913  -0.3724125   0.0793871), wk =   0.0200000
        k(   44) = (   0.2480913  -0.3724125   0.2381614), wk =   0.0200000
        k(   45) = (   0.2480913  -0.2578240   0.0793871), wk =   0.0200000
        k(   46) = (   0.2480913  -0.2578240   0.2381614), wk =   0.0200000
        k(   47) = (   0.2480913  -0.1432356   0.0793871), wk =   0.0100000
        k(   48) = (   0.2480913  -0.1432356   0.2381614), wk =   0.0100000
        k(   49) = (   0.3473278   0.6015894   0.0793871), wk =   0.0100000
        k(   50) = (   0.3473278   0.6015894   0.2381614), wk =   0.0100000
        k(   51) = (   0.3473278   0.7161778   0.0793871), wk =   0.0200000
        k(   52) = (   0.3473278   0.7161778   0.2381614), wk =   0.0200000
        k(   53) = (   0.3473278  -0.3151183   0.0793871), wk =   0.0200000
        k(   54) = (   0.3473278  -0.3151183   0.2381614), wk =   0.0200000
        k(   55) = (   0.3473278  -0.2005298   0.0793871), wk =   0.0100000
        k(   56) = (   0.3473278  -0.2005298   0.2381614), wk =   0.0100000
        k(   57) = (   0.4465643   0.7734721   0.0793871), wk =   0.0100000
        k(   58) = (   0.4465643   0.7734721   0.2381614), wk =   0.0100000
        k(   59) = (   0.4465643  -0.2578240   0.0793871), wk =   0.0100000
        k(   60) = (   0.4465643  -0.2578240   0.2381614), wk =   0.0100000

     Initial potential from superposition of free atoms

     starting charge   25.99026, renormalised to   26.00000
     Starting wfcs are   18 randomized atomic wfcs
     Checking if some PAW data can be deallocated...

     Self-consistent Calculation

     iteration #  1     ecut=    45.00 Ry     beta= 0.70
     Davidson diagonalization with overlap
     c_bands:  1 eigenvalues not converged
     ethr =  1.00E-06,  avg # of iterations = 10.9

[...]

     total energy              =   -1673.54312302 Ry
     Harris-Foulkes estimate   =   -1673.54312309 Ry
     estimated scf accuracy    <       0.00000011 Ry

[...]

     iteration #  6     ecut=    45.00 Ry     beta= 0.70
     Davidson diagonalization with overlap
     ethr =  4.20E-10,  avg # of iterations =  2.0

     Magnetic moment per site:
     atom:    1    charge:   11.8681    magn:    0.0000    constr:    0.0000
     atom:    2    charge:   11.8681    magn:    0.0000    constr:    0.0000

     End of self-consistent calculation

     Number of k-points >= 100: set verbosity='high' to print the bands.

     the Fermi energy is     9.5483 ev

!    total energy              =   -1673.54312305 Ry
     Harris-Foulkes estimate   =   -1673.54312305 Ry
     estimated scf accuracy    <          3.7E-10 Ry

     total all-electron energy =    -80984.112175 Ry

     The total energy is the sum of the following terms:

     one-electron contribution =     -40.27120499 Ry
     hartree contribution      =      45.05719940 Ry
     xc contribution           =     -64.94002113 Ry
     ewald contribution        =    -164.54811267 Ry
     one-center paw contrib.   =   -1448.84120866 Ry
     smearing contrib. (-TS)   =       0.00022500 Ry

     total magnetization       =     0.00 Bohr mag/cell
     absolute magnetization    =     0.00 Bohr mag/cell

     convergence has been achieved in   6 iterations

     Forces acting on atoms (cartesian axes, Ry/au):

     atom    1 type  1   force =    -0.00000000   -0.00000000    0.00000000
     atom    2 type  1   force =     0.00000000    0.00000000   -0.00000000

     Total force =     0.000000     Total SCF correction =     0.000000

     Computing stress (Cartesian axis) and pressure

          total   stress  (Ry/bohr**3)                   (kbar)     P=    0.64
   0.00000835   0.00000000  -0.00000000          1.23      0.00     -0.00
   0.00000000   0.00000835   0.00000000          0.00      1.23      0.00
  -0.00000000  -0.00000000  -0.00000367         -0.00     -0.00     -0.54

     Writing output data file pw.save/

     General routines

     Parallel routines

   This run was terminated on:  10: 1:31   7Nov2020

   JOB DONE.