     Program PWSCF v.6.4.1 starts on  7Nov2020 at 10:10:24

     R & G space division:  proc/nbgrp/npool/nimage =       2
     Waiting for input...
     Reading input from standard input

     Current dimensions of program PWSCF are:
     Max number of different atomic species (ntypx) = 10
     Max number of k-points (npk) =  40000
     Max angular momentum in pseudopotentials (lmaxx) =  3
               file Tm.pbe-spdn-kjpaw_psl.1.0.0.UPF: wavefunction(s)  5D renormalized

     Subspace diagonalization in iterative solution of the eigenvalue problem:
     a serial algorithm will be used

     Message from routine setup:
     DEPRECATED: symmetry with ibrav=0, use correct ibrav instead

     bravais-lattice index     =            0
     lattice parameter (alat)  =       6.6849  a.u.
     unit-cell volume          =     408.6297 (a.u.)^3
     number of atoms/cell      =            2
     number of atomic types    =            1
     number of electrons       =        22.00
     number of Kohn-Sham states=           15
     kinetic-energy cutoff     =      38.0000  Ry
     charge density cutoff     =     316.0000  Ry
     convergence threshold     =      1.0E-06
     mixing beta               =       0.7000
     number of iterations used =            8  plain     mixing
     Exchange-correlation      = SLA PW PBX PBC ( 1  4  3  4 0 0)
     nstep                     =           50

     celldm(1)=   6.684906  celldm(2)=   0.000000  celldm(3)=   0.000000
     celldm(4)=   0.000000  celldm(5)=   0.000000  celldm(6)=   0.000000

     crystal axes: (cart. coord. in units of alat)
               a(1) = (   1.000000   0.000000   0.000000 )
               a(2) = (  -0.500000   0.866025   0.000000 )
               a(3) = (   0.000000   0.000000   1.579477 )

     reciprocal axes: (cart. coord. in units 2 pi/alat)
               b(1) = (  1.000000  0.577350 -0.000000 )
               b(2) = (  0.000000  1.154701  0.000000 )
               b(3) = (  0.000000 -0.000000  0.633121 )

     PseudoPot. # 1 for Tm read from file:
     ./potentials/Tm.pbe-spdn-kjpaw_psl.1.0.0.UPF
     MD5 check sum: e15a5849b140ca60d157244f278b3507
     Pseudo is Projector augmented-wave + core cor, Zval = 11.0
     Generated using "atomic" code by A. Dal Corso v.6.2.2
     Shape of augmentation charge: PSQ
     Using radial grid of 1269 points,  6 beta functions with:
                l(1) =   0
                l(2) =   0
                l(3) =   1
                l(4) =   1
                l(5) =   2
                l(6) =   2
     Q(r) pseudized with 0 coefficients

     atomic species   valence    mass     pseudopotential
        Tm            11.00   168.93400     Tm( 1.00)

     Starting magnetic structure
     atomic species   magnetization
        Tm           1.000

     24 Sym. Ops., with inversion, found (12 have fractional translation)

   Cartesian axes

     site n.     atom                  positions (alat units)
         1           Tm  tau(   1) = (   0.5000000   0.2886751   1.1846078  )
         2           Tm  tau(   2) = (  -0.0000000   0.5773503   0.3948693  )

     number of k points=    90  Methfessel-Paxton smearing, width (Ry)=  0.0200
                       cart. coord. in units 2pi/alat
        k(    1) = (   0.0500000   0.0866025   0.0527601), wk =   0.0066667
        k(    2) = (   0.0500000   0.0866025   0.1582802), wk =   0.0066667
        k(    3) = (   0.0500000   0.0866025   0.2638004), wk =   0.0066667
        k(    4) = (   0.0500000   0.2020726   0.0527601), wk =   0.0133333
        k(    5) = (   0.0500000   0.2020726   0.1582802), wk =   0.0133333
        k(    6) = (   0.0500000   0.2020726   0.2638004), wk =   0.0133333
        k(    7) = (   0.0500000   0.3175426   0.0527601), wk =   0.0133333
        k(    8) = (   0.0500000   0.3175426   0.1582802), wk =   0.0133333
        k(    9) = (   0.0500000   0.3175426   0.2638004), wk =   0.0133333
        k(   10) = (   0.0500000   0.4330127   0.0527601), wk =   0.0133333
        k(   11) = (   0.0500000   0.4330127   0.1582802), wk =   0.0133333
        k(   12) = (   0.0500000   0.4330127   0.2638004), wk =   0.0133333
        k(   13) = (   0.0500000   0.5484828   0.0527601), wk =   0.0133333
        k(   14) = (   0.0500000   0.5484828   0.1582802), wk =   0.0133333
        k(   15) = (   0.0500000   0.5484828   0.2638004), wk =   0.0133333
        k(   16) = (   0.0500000  -0.4907477   0.0527601), wk =   0.0133333
        k(   17) = (   0.0500000  -0.4907477   0.1582802), wk =   0.0133333
        k(   18) = (   0.0500000  -0.4907477   0.2638004), wk =   0.0133333
        k(   19) = (   0.0500000  -0.3752777   0.0527601), wk =   0.0133333
        k(   20) = (   0.0500000  -0.3752777   0.1582802), wk =   0.0133333
        k(   21) = (   0.0500000  -0.3752777   0.2638004), wk =   0.0133333
        k(   22) = (   0.0500000  -0.2598076   0.0527601), wk =   0.0133333
        k(   23) = (   0.0500000  -0.2598076   0.1582802), wk =   0.0133333
        k(   24) = (   0.0500000  -0.2598076   0.2638004), wk =   0.0133333
        k(   25) = (   0.0500000  -0.1443376   0.0527601), wk =   0.0133333
        k(   26) = (   0.0500000  -0.1443376   0.1582802), wk =   0.0133333
        k(   27) = (   0.0500000  -0.1443376   0.2638004), wk =   0.0133333
        k(   28) = (   0.0500000  -0.0288675   0.0527601), wk =   0.0066667
        k(   29) = (   0.0500000  -0.0288675   0.1582802), wk =   0.0066667
        k(   30) = (   0.0500000  -0.0288675   0.2638004), wk =   0.0066667
        k(   31) = (   0.1500000   0.2598076   0.0527601), wk =   0.0066667
        k(   32) = (   0.1500000   0.2598076   0.1582802), wk =   0.0066667
        k(   33) = (   0.1500000   0.2598076   0.2638004), wk =   0.0066667
        k(   34) = (   0.1500000   0.3752777   0.0527601), wk =   0.0133333
        k(   35) = (   0.1500000   0.3752777   0.1582802), wk =   0.0133333
        k(   36) = (   0.1500000   0.3752777   0.2638004), wk =   0.0133333
        k(   37) = (   0.1500000   0.4907477   0.0527601), wk =   0.0133333
        k(   38) = (   0.1500000   0.4907477   0.1582802), wk =   0.0133333
        k(   39) = (   0.1500000   0.4907477   0.2638004), wk =   0.0133333
        k(   40) = (   0.1500000   0.6062178   0.0527601), wk =   0.0133333
        k(   41) = (   0.1500000   0.6062178   0.1582802), wk =   0.0133333
        k(   42) = (   0.1500000   0.6062178   0.2638004), wk =   0.0133333
        k(   43) = (   0.1500000  -0.4330127   0.0527601), wk =   0.0133333
        k(   44) = (   0.1500000  -0.4330127   0.1582802), wk =   0.0133333
        k(   45) = (   0.1500000  -0.4330127   0.2638004), wk =   0.0133333
        k(   46) = (   0.1500000  -0.3175426   0.0527601), wk =   0.0133333
        k(   47) = (   0.1500000  -0.3175426   0.1582802), wk =   0.0133333
        k(   48) = (   0.1500000  -0.3175426   0.2638004), wk =   0.0133333
        k(   49) = (   0.1500000  -0.2020726   0.0527601), wk =   0.0133333
        k(   50) = (   0.1500000  -0.2020726   0.1582802), wk =   0.0133333
        k(   51) = (   0.1500000  -0.2020726   0.2638004), wk =   0.0133333
        k(   52) = (   0.1500000  -0.0866025   0.0527601), wk =   0.0066667
        k(   53) = (   0.1500000  -0.0866025   0.1582802), wk =   0.0066667
        k(   54) = (   0.1500000  -0.0866025   0.2638004), wk =   0.0066667
        k(   55) = (   0.2500000   0.4330127   0.0527601), wk =   0.0066667
        k(   56) = (   0.2500000   0.4330127   0.1582802), wk =   0.0066667
        k(   57) = (   0.2500000   0.4330127   0.2638004), wk =   0.0066667
        k(   58) = (   0.2500000   0.5484828   0.0527601), wk =   0.0133333
        k(   59) = (   0.2500000   0.5484828   0.1582802), wk =   0.0133333
        k(   60) = (   0.2500000   0.5484828   0.2638004), wk =   0.0133333
[...]
        k(   76) = (   0.3500000   0.7216878   0.0527601), wk =   0.0133333
        k(   77) = (   0.3500000   0.7216878   0.1582802), wk =   0.0133333
        k(   78) = (   0.3500000   0.7216878   0.2638004), wk =   0.0133333
        k(   79) = (   0.3500000  -0.3175426   0.0527601), wk =   0.0133333
        k(   80) = (   0.3500000  -0.3175426   0.1582802), wk =   0.0133333
        k(   81) = (   0.3500000  -0.3175426   0.2638004), wk =   0.0133333
        k(   82) = (   0.3500000  -0.2020726   0.0527601), wk =   0.0066667
        k(   83) = (   0.3500000  -0.2020726   0.1582802), wk =   0.0066667
        k(   84) = (   0.3500000  -0.2020726   0.2638004), wk =   0.0066667
        k(   85) = (   0.4500000   0.7794229   0.0527601), wk =   0.0066667
        k(   86) = (   0.4500000   0.7794229   0.1582802), wk =   0.0066667
        k(   87) = (   0.4500000   0.7794229   0.2638004), wk =   0.0066667
        k(   88) = (   0.4500000  -0.2598076   0.0527601), wk =   0.0066667
        k(   89) = (   0.4500000  -0.2598076   0.1582802), wk =   0.0066667
        k(   90) = (   0.4500000  -0.2598076   0.2638004), wk =   0.0066667

     Initial potential from superposition of free atoms

     starting charge   21.96026, renormalised to   22.00000

     negative rho (up, down):  0.000E+00 2.083E-05
     Starting wfcs are   26 randomized atomic wfcs
     Checking if some PAW data can be deallocated...

     Self-consistent Calculation

     iteration #  1     ecut=    38.00 Ry     beta= 0.70
     Davidson diagonalization with overlap
     ethr =  1.00E-02,  avg # of iterations =  2.0

     total energy              =   -1268.83354983 Ry
     Harris-Foulkes estimate   =   -1266.95359832 Ry
     estimated scf accuracy    <       1.46558754 Ry

     total magnetization       =     4.08 Bohr mag/cell
     absolute magnetization    =     4.12 Bohr mag/cell

[...]

     Magnetic moment per site:
     atom:    1    charge:    9.5100    magn:    0.0301    constr:    0.0000
     atom:    2    charge:    9.5100    magn:    0.0301    constr:    0.0000

     End of self-consistent calculation

     Number of k-points >= 100: set verbosity='high' to print the bands.

     the Fermi energy is    10.1711 ev

!    total energy              =   -1269.19424785 Ry
     Harris-Foulkes estimate   =   -1269.19424687 Ry
     estimated scf accuracy    <       0.00000061 Ry

     total all-electron energy =    -54269.825674 Ry

     The total energy is the sum of the following terms:

     one-electron contribution =     -37.37237681 Ry
     hartree contribution      =      26.28989326 Ry
     xc contribution           =    -114.02924093 Ry
     ewald contribution        =    -118.64958593 Ry
     one-center paw contrib.   =   -1025.43202283 Ry
     smearing contrib. (-TS)   =      -0.00091461 Ry

[...]

     convergence has been achieved in  11 iterations

     Forces acting on atoms (cartesian axes, Ry/au):

     atom    1 type  1   force =     0.00000000    0.00000000    0.00000000
     atom    2 type  1   force =     0.00000000    0.00000000    0.00000000

     Total force =     0.000000     Total SCF correction =     0.000000

     Computing stress (Cartesian axis) and pressure

          total   stress  (Ry/bohr**3)                   (kbar)     P=   -1.84
   0.00000921  -0.00000000  -0.00000000          1.35     -0.00     -0.00
  -0.00000000   0.00000921   0.00000000         -0.00      1.35      0.00
  -0.00000000   0.00000000  -0.00005603         -0.00      0.00     -8.24

     BFGS Geometry Optimization

     number of scf cycles    =   1
     number of bfgs steps    =   0

     enthalpy new            =   -1269.1942478545 Ry

     new trust radius        =       0.0056627756 bohr
     new conv_thr            =       0.0000010000 Ry

     new unit-cell volume =    408.24519 a.u.^3 (    60.49570 Ang^3 )
     density =      9.27410 g/cm^3

CELL_PARAMETERS (alat=  6.68490620)
   1.000230179  -0.000000000  -0.000000000
  -0.500115090   0.866224745   0.000000000
  -0.000000000   0.000000000   1.577264713

ATOMIC_POSITIONS (crystal)
Tm       0.666666667   0.333333333   0.750000000
Tm       0.333333333   0.666666667   0.250000000

     Writing output data file pw.save/
     NEW-OLD atomic charge density approx. for the potential
     extrapolated charge   21.97932, renormalised to   22.00000

[...]

     Threshold (ethr) on eigenvalues was too large:
     Diagonalizing with lowered threshold

     Davidson diagonalization with overlap
     ethr =  4.95E-08,  avg # of iterations =  1.9

[...]

     enthalpy old            =   -1269.1942478545 Ry
     enthalpy new            =   -1269.1942868579 Ry

     CASE: enthalpy_new < enthalpy_old

     WARNING: bfgs curvature condition failed, Theta= 0.849
     new trust radius        =       0.0062348549 bohr
     new conv_thr            =       0.0000000100 Ry

[...]

     WARNING: bfgs curvature condition failed, Theta= 0.913
     new trust radius        =       0.0008643146 bohr
     new conv_thr            =       0.0000000100 Ry

[...]

     number of scf cycles    =   8
     number of bfgs steps    =   7

     enthalpy old            =   -1269.1944322938 Ry
     enthalpy new            =   -1269.1944334603 Ry

     CASE: enthalpy_new < enthalpy_old

     new trust radius        =       0.0012965303 bohr
     new conv_thr            =       0.0000000100 Ry

     new unit-cell volume =    406.62528 a.u.^3 (    60.25565 Ang^3 )
     density =      9.31104 g/cm^3

[...]

ATOMIC_POSITIONS (crystal)
Tm       0.666666667   0.333333333   0.750000000
Tm       0.333333333   0.666666667   0.250000000

     Writing output data file pw.save/
     NEW-OLD atomic charge density approx. for the potential
     extrapolated charge   22.01653, renormalised to   22.00000

[...]

     Threshold (ethr) on eigenvalues was too large:
     Diagonalizing with lowered threshold

     Davidson diagonalization with overlap
     ethr =  3.14E-08,  avg # of iterations =  1.0

[...]

     bfgs converged in   9 scf cycles and   8 bfgs steps
     (criteria: energy <  1.0E-04 Ry, force <  1.0E-03Ry/Bohr, cell <  5.0E-01kbar)

     End of BFGS Geometry Optimization

     Final enthalpy =   -1269.1944345388 Ry
Begin final coordinates
     new unit-cell volume =    406.62528 a.u.^3 (    60.25565 Ang^3 )
     density =      9.31104 g/cm^3

CELL_PARAMETERS (alat=  6.68490620)
   1.003806674  -0.000000000  -0.000000000
  -0.501903337   0.869322080  -0.000000000
   0.000000000   0.000000000   1.559831312

ATOMIC_POSITIONS (crystal)
Tm       0.666666667   0.333333333   0.750000000
Tm       0.333333333   0.666666667   0.250000000
End final coordinates

     Writing output data file pw.save/

     A final scf calculation at the relaxed structure.
     The G-vectors are recalculated for the final unit cell
     Results may differ from those at the preceding step.

     bravais-lattice index     =            0
     lattice parameter (alat)  =       6.6849  a.u.
     unit-cell volume          =     406.6253 (a.u.)^3
     number of atoms/cell      =            2
     number of atomic types    =            1
     number of electrons       =        22.00
     number of Kohn-Sham states=           15
     kinetic-energy cutoff     =      38.0000  Ry
     charge density cutoff     =     316.0000  Ry
     convergence threshold     =      1.0E-08
     mixing beta               =       0.7000
     number of iterations used =            8  plain     mixing
     Exchange-correlation      = SLA PW PBX PBC ( 1  4  3  4 0 0)

     celldm(1)=   6.684906  celldm(2)=   0.000000  celldm(3)=   0.000000
     celldm(4)=   0.000000  celldm(5)=   0.000000  celldm(6)=   0.000000

     crystal axes: (cart. coord. in units of alat)
               a(1) = (   1.003807  -0.000000  -0.000000 )
               a(2) = (  -0.501903   0.869322  -0.000000 )
               a(3) = (   0.000000   0.000000   1.559831 )

     reciprocal axes: (cart. coord. in units 2 pi/alat)
               b(1) = (  0.996208  0.575161 -0.000000 )
               b(2) = (  0.000000  1.150322 -0.000000 )
               b(3) = (  0.000000  0.000000  0.641095 )

     PseudoPot. # 1 for Tm read from file:
     ./potentials/Tm.pbe-spdn-kjpaw_psl.1.0.0.UPF
     MD5 check sum: e15a5849b140ca60d157244f278b3507
     Pseudo is Projector augmented-wave + core cor, Zval = 11.0
     Generated using "atomic" code by A. Dal Corso v.6.2.2
     Shape of augmentation charge: PSQ
     Using radial grid of 1269 points,  6 beta functions with:
                l(1) =   0
                l(2) =   0
                l(3) =   1
                l(4) =   1
                l(5) =   2
                l(6) =   2
     Q(r) pseudized with 0 coefficients

     atomic species   valence    mass     pseudopotential
        Tm            11.00   168.93400     Tm( 1.00)

     Starting magnetic structure
     atomic species   magnetization
        Tm           0.000

     24 Sym. Ops., with inversion, found (12 have fractional translation)

   Cartesian axes

     site n.     atom                  positions (alat units)
         1           Tm  tau(   1) = (   0.5019033   0.2897740   1.1698735  )
         2           Tm  tau(   2) = (  -0.0000000   0.5795481   0.3899578  )

     number of k points=    90  Methfessel-Paxton smearing, width (Ry)=  0.0200
                       cart. coord. in units 2pi/alat
        k(    1) = (   0.0498104   0.0862741   0.0534246), wk =   0.0066667
        k(    2) = (   0.0498104   0.0862741   0.1602737), wk =   0.0066667
        k(    3) = (   0.0498104   0.0862741   0.2671229), wk =   0.0066667
        k(    4) = (   0.0498104   0.2013063   0.0534246), wk =   0.0133333
        k(    5) = (   0.0498104   0.2013063   0.1602737), wk =   0.0133333
        k(    6) = (   0.0498104   0.2013063   0.2671229), wk =   0.0133333
        k(    7) = (   0.0498104   0.3163385   0.0534246), wk =   0.0133333
        k(    8) = (   0.0498104   0.3163385   0.1602737), wk =   0.0133333
        k(    9) = (   0.0498104   0.3163385   0.2671229), wk =   0.0133333
        k(   10) = (   0.0498104   0.4313706   0.0534246), wk =   0.0133333
        k(   11) = (   0.0498104   0.4313706   0.1602737), wk =   0.0133333
        k(   12) = (   0.0498104   0.4313706   0.2671229), wk =   0.0133333
        k(   13) = (   0.0498104   0.5464028   0.0534246), wk =   0.0133333
        k(   14) = (   0.0498104   0.5464028   0.1602737), wk =   0.0133333
        k(   15) = (   0.0498104   0.5464028   0.2671229), wk =   0.0133333
        k(   16) = (   0.0498104  -0.4888867   0.0534246), wk =   0.0133333
        k(   17) = (   0.0498104  -0.4888867   0.1602737), wk =   0.0133333
        k(   18) = (   0.0498104  -0.4888867   0.2671229), wk =   0.0133333
        k(   19) = (   0.0498104  -0.3738545   0.0534246), wk =   0.0133333
        k(   20) = (   0.0498104  -0.3738545   0.1602737), wk =   0.0133333
        k(   21) = (   0.0498104  -0.3738545   0.2671229), wk =   0.0133333
        k(   22) = (   0.0498104  -0.2588224   0.0534246), wk =   0.0133333
        k(   23) = (   0.0498104  -0.2588224   0.1602737), wk =   0.0133333
        k(   24) = (   0.0498104  -0.2588224   0.2671229), wk =   0.0133333
        k(   25) = (   0.0498104  -0.1437902   0.0534246), wk =   0.0133333
        k(   26) = (   0.0498104  -0.1437902   0.1602737), wk =   0.0133333
        k(   27) = (   0.0498104  -0.1437902   0.2671229), wk =   0.0133333
        k(   28) = (   0.0498104  -0.0287580   0.0534246), wk =   0.0066667
        k(   29) = (   0.0498104  -0.0287580   0.1602737), wk =   0.0066667
        k(   30) = (   0.0498104  -0.0287580   0.2671229), wk =   0.0066667
        k(   31) = (   0.1494312   0.2588224   0.0534246), wk =   0.0066667
        k(   32) = (   0.1494312   0.2588224   0.1602737), wk =   0.0066667
        k(   33) = (   0.1494312   0.2588224   0.2671229), wk =   0.0066667
        k(   34) = (   0.1494312   0.3738545   0.0534246), wk =   0.0133333
        k(   35) = (   0.1494312   0.3738545   0.1602737), wk =   0.0133333
        k(   36) = (   0.1494312   0.3738545   0.2671229), wk =   0.0133333
        k(   37) = (   0.1494312   0.4888867   0.0534246), wk =   0.0133333
        k(   38) = (   0.1494312   0.4888867   0.1602737), wk =   0.0133333
        k(   39) = (   0.1494312   0.4888867   0.2671229), wk =   0.0133333
        k(   40) = (   0.1494312   0.6039189   0.0534246), wk =   0.0133333
        k(   41) = (   0.1494312   0.6039189   0.1602737), wk =   0.0133333
        k(   42) = (   0.1494312   0.6039189   0.2671229), wk =   0.0133333
        k(   43) = (   0.1494312  -0.4313706   0.0534246), wk =   0.0133333
        k(   44) = (   0.1494312  -0.4313706   0.1602737), wk =   0.0133333
        k(   45) = (   0.1494312  -0.4313706   0.2671229), wk =   0.0133333
        k(   46) = (   0.1494312  -0.3163385   0.0534246), wk =   0.0133333
        k(   47) = (   0.1494312  -0.3163385   0.1602737), wk =   0.0133333
        k(   48) = (   0.1494312  -0.3163385   0.2671229), wk =   0.0133333
        k(   49) = (   0.1494312  -0.2013063   0.0534246), wk =   0.0133333
        k(   50) = (   0.1494312  -0.2013063   0.1602737), wk =   0.0133333
        k(   51) = (   0.1494312  -0.2013063   0.2671229), wk =   0.0133333
        k(   52) = (   0.1494312  -0.0862741   0.0534246), wk =   0.0066667
        k(   53) = (   0.1494312  -0.0862741   0.1602737), wk =   0.0066667
        k(   54) = (   0.1494312  -0.0862741   0.2671229), wk =   0.0066667
        k(   55) = (   0.2490519   0.4313706   0.0534246), wk =   0.0066667
        k(   56) = (   0.2490519   0.4313706   0.1602737), wk =   0.0066667
        k(   57) = (   0.2490519   0.4313706   0.2671229), wk =   0.0066667
        k(   58) = (   0.2490519   0.5464028   0.0534246), wk =   0.0133333
        k(   59) = (   0.2490519   0.5464028   0.1602737), wk =   0.0133333
        k(   60) = (   0.2490519   0.5464028   0.2671229), wk =   0.0133333
[...]
        k(   76) = (   0.3486727   0.7189510   0.0534246), wk =   0.0133333
        k(   77) = (   0.3486727   0.7189510   0.1602737), wk =   0.0133333
        k(   78) = (   0.3486727   0.7189510   0.2671229), wk =   0.0133333
        k(   79) = (   0.3486727  -0.3163385   0.0534246), wk =   0.0133333
        k(   80) = (   0.3486727  -0.3163385   0.1602737), wk =   0.0133333
        k(   81) = (   0.3486727  -0.3163385   0.2671229), wk =   0.0133333
        k(   82) = (   0.3486727  -0.2013063   0.0534246), wk =   0.0066667
        k(   83) = (   0.3486727  -0.2013063   0.1602737), wk =   0.0066667
        k(   84) = (   0.3486727  -0.2013063   0.2671229), wk =   0.0066667
        k(   85) = (   0.4482935   0.7764671   0.0534246), wk =   0.0066667
        k(   86) = (   0.4482935   0.7764671   0.1602737), wk =   0.0066667
        k(   87) = (   0.4482935   0.7764671   0.2671229), wk =   0.0066667
        k(   88) = (   0.4482935  -0.2588224   0.0534246), wk =   0.0066667
        k(   89) = (   0.4482935  -0.2588224   0.1602737), wk =   0.0066667
        k(   90) = (   0.4482935  -0.2588224   0.2671229), wk =   0.0066667

     Initial potential from superposition of free atoms

     starting charge   21.96026, renormalised to   22.00000
     Starting wfcs are   26 randomized atomic wfcs
     Checking if some PAW data can be deallocated...

     Self-consistent Calculation

[...]

     total energy              =   -1269.19440322 Ry
     Harris-Foulkes estimate   =   -1269.19440323 Ry
     estimated scf accuracy    <       0.00000002 Ry

[...]

     iteration #  6     ecut=    38.00 Ry     beta= 0.70
     Davidson diagonalization with overlap
     ethr =  8.14E-11,  avg # of iterations =  2.3

     Magnetic moment per site:
     atom:    1    charge:    9.5183    magn:    0.0000    constr:    0.0000
     atom:    2    charge:    9.5183    magn:    0.0000    constr:    0.0000

     End of self-consistent calculation

     Number of k-points >= 100: set verbosity='high' to print the bands.

     the Fermi energy is    10.2228 ev

!    total energy              =   -1269.19440322 Ry
     Harris-Foulkes estimate   =   -1269.19440322 Ry
     estimated scf accuracy    <          1.6E-09 Ry

     total all-electron energy =    -54269.825829 Ry

     The total energy is the sum of the following terms:

     one-electron contribution =     -37.12666371 Ry
     hartree contribution      =      26.22461221 Ry
     xc contribution           =    -114.03679618 Ry
     ewald contribution        =    -118.82244016 Ry
     one-center paw contrib.   =   -1025.43227582 Ry
     smearing contrib. (-TS)   =      -0.00083957 Ry

     total magnetization       =     0.00 Bohr mag/cell
     absolute magnetization    =     0.00 Bohr mag/cell

     convergence has been achieved in   6 iterations

     Forces acting on atoms (cartesian axes, Ry/au):

     atom    1 type  1   force =     0.00000000    0.00000000    0.00000000
     atom    2 type  1   force =    -0.00000000   -0.00000000    0.00000000

     Total force =     0.000000     Total SCF correction =     0.000000

     Computing stress (Cartesian axis) and pressure

          total   stress  (Ry/bohr**3)                   (kbar)     P=    0.40
   0.00000280  -0.00000000  -0.00000000          0.41     -0.00     -0.00
  -0.00000000   0.00000280  -0.00000000         -0.00      0.41     -0.00
  -0.00000000  -0.00000000   0.00000249         -0.00     -0.00      0.37

     Writing output data file pw.save/

     General routines

     Parallel routines

   This run was terminated on:  10:31:59   7Nov2020

   JOB DONE.