     Program PWSCF v.6.4.1 starts on  6Nov2020 at 11:29: 6

     R & G space division:  proc/nbgrp/npool/nimage =       2
     Waiting for input...
     Reading input from standard input

     Current dimensions of program PWSCF are:
     Max number of different atomic species (ntypx) = 10
     Max number of k-points (npk) =  40000
     Max angular momentum in pseudopotentials (lmaxx) =  3
               file Y.pbe-spn-kjpaw_psl.1.0.0.UPF: wavefunction(s)  4S 4P renormalized

     Subspace diagonalization in iterative solution of the eigenvalue problem:
     a serial algorithm will be used

     Message from routine setup:
     DEPRECATED: symmetry with ibrav=0, use correct ibrav instead

     bravais-lattice index     =            0
     lattice parameter (alat)  =       6.9145  a.u.
     unit-cell volume          =     443.3266 (a.u.)^3
     number of atoms/cell      =            2
     number of atomic types    =            1
     number of electrons       =        22.00
     number of Kohn-Sham states=           15
     kinetic-energy cutoff     =      38.0000  Ry
     charge density cutoff     =     257.0000  Ry
     convergence threshold     =      1.0E-06
     mixing beta               =       0.7000
     number of iterations used =            8  plain     mixing
     Exchange-correlation      = SLA PW PBX PBC ( 1  4  3  4 0 0)
     nstep                     =           50

     celldm(1)=   6.914489  celldm(2)=   0.000000  celldm(3)=   0.000000
     celldm(4)=   0.000000  celldm(5)=   0.000000  celldm(6)=   0.000000

     crystal axes: (cart. coord. in units of alat)
               a(1) = (   1.000000   0.000000   0.000000 )
               a(2) = (  -0.500000   0.866025   0.000000 )
               a(3) = (   0.000000   0.000000   1.548506 )

     reciprocal axes: (cart. coord. in units 2 pi/alat)
               b(1) = (  1.000000  0.577350 -0.000000 )
               b(2) = (  0.000000  1.154701  0.000000 )
               b(3) = (  0.000000 -0.000000  0.645784 )

     PseudoPot. # 1 for Y  read from file:
     ./potentials/Y.pbe-spn-kjpaw_psl.1.0.0.UPF
     MD5 check sum: d52e8d8ffa9ef5a9f13bb13aaba2e897
     Pseudo is Projector augmented-wave + core cor, Zval = 11.0
     Generated using "atomic" code by A. Dal Corso v.6.2.2
     Shape of augmentation charge: PSQ
     Using radial grid of 1223 points,  6 beta functions with:
                l(1) =   0
                l(2) =   0
                l(3) =   1
                l(4) =   1
                l(5) =   2
                l(6) =   2
     Q(r) pseudized with 0 coefficients

     atomic species   valence    mass     pseudopotential
        Y             11.00    88.90500     Y ( 1.00)

     Starting magnetic structure
     atomic species   magnetization
        Y            1.000

     24 Sym. Ops., with inversion, found (12 have fractional translation)

   Cartesian axes

     site n.     atom                  positions (alat units)
         1           Y   tau(   1) = (   0.5000000   0.2886751   1.1613796  )
         2           Y   tau(   2) = (  -0.0000000   0.5773503   0.3871265  )

     number of k points=    90  Methfessel-Paxton smearing, width (Ry)=  0.0200
                       cart. coord. in units 2pi/alat
        k(    1) = (   0.0500000   0.0866025   0.0538153), wk =   0.0066667
        k(    2) = (   0.0500000   0.0866025   0.1614459), wk =   0.0066667
        k(    3) = (   0.0500000   0.0866025   0.2690765), wk =   0.0066667
        k(    4) = (   0.0500000   0.2020726   0.0538153), wk =   0.0133333
        k(    5) = (   0.0500000   0.2020726   0.1614459), wk =   0.0133333
        k(    6) = (   0.0500000   0.2020726   0.2690765), wk =   0.0133333
        k(    7) = (   0.0500000   0.3175426   0.0538153), wk =   0.0133333
        k(    8) = (   0.0500000   0.3175426   0.1614459), wk =   0.0133333
        k(    9) = (   0.0500000   0.3175426   0.2690765), wk =   0.0133333
        k(   10) = (   0.0500000   0.4330127   0.0538153), wk =   0.0133333
        k(   11) = (   0.0500000   0.4330127   0.1614459), wk =   0.0133333
        k(   12) = (   0.0500000   0.4330127   0.2690765), wk =   0.0133333
        k(   13) = (   0.0500000   0.5484828   0.0538153), wk =   0.0133333
        k(   14) = (   0.0500000   0.5484828   0.1614459), wk =   0.0133333
        k(   15) = (   0.0500000   0.5484828   0.2690765), wk =   0.0133333
        k(   16) = (   0.0500000  -0.4907477   0.0538153), wk =   0.0133333
        k(   17) = (   0.0500000  -0.4907477   0.1614459), wk =   0.0133333
        k(   18) = (   0.0500000  -0.4907477   0.2690765), wk =   0.0133333
        k(   19) = (   0.0500000  -0.3752777   0.0538153), wk =   0.0133333
        k(   20) = (   0.0500000  -0.3752777   0.1614459), wk =   0.0133333
        k(   21) = (   0.0500000  -0.3752777   0.2690765), wk =   0.0133333
        k(   22) = (   0.0500000  -0.2598076   0.0538153), wk =   0.0133333
        k(   23) = (   0.0500000  -0.2598076   0.1614459), wk =   0.0133333
        k(   24) = (   0.0500000  -0.2598076   0.2690765), wk =   0.0133333
        k(   25) = (   0.0500000  -0.1443376   0.0538153), wk =   0.0133333
        k(   26) = (   0.0500000  -0.1443376   0.1614459), wk =   0.0133333
        k(   27) = (   0.0500000  -0.1443376   0.2690765), wk =   0.0133333
        k(   28) = (   0.0500000  -0.0288675   0.0538153), wk =   0.0066667
        k(   29) = (   0.0500000  -0.0288675   0.1614459), wk =   0.0066667
        k(   30) = (   0.0500000  -0.0288675   0.2690765), wk =   0.0066667
        k(   31) = (   0.1500000   0.2598076   0.0538153), wk =   0.0066667
        k(   32) = (   0.1500000   0.2598076   0.1614459), wk =   0.0066667
        k(   33) = (   0.1500000   0.2598076   0.2690765), wk =   0.0066667
        k(   34) = (   0.1500000   0.3752777   0.0538153), wk =   0.0133333
        k(   35) = (   0.1500000   0.3752777   0.1614459), wk =   0.0133333
        k(   36) = (   0.1500000   0.3752777   0.2690765), wk =   0.0133333
        k(   37) = (   0.1500000   0.4907477   0.0538153), wk =   0.0133333
        k(   38) = (   0.1500000   0.4907477   0.1614459), wk =   0.0133333
        k(   39) = (   0.1500000   0.4907477   0.2690765), wk =   0.0133333
        k(   40) = (   0.1500000   0.6062178   0.0538153), wk =   0.0133333
        k(   41) = (   0.1500000   0.6062178   0.1614459), wk =   0.0133333
        k(   42) = (   0.1500000   0.6062178   0.2690765), wk =   0.0133333
        k(   43) = (   0.1500000  -0.4330127   0.0538153), wk =   0.0133333
        k(   44) = (   0.1500000  -0.4330127   0.1614459), wk =   0.0133333
        k(   45) = (   0.1500000  -0.4330127   0.2690765), wk =   0.0133333
        k(   46) = (   0.1500000  -0.3175426   0.0538153), wk =   0.0133333
        k(   47) = (   0.1500000  -0.3175426   0.1614459), wk =   0.0133333
        k(   48) = (   0.1500000  -0.3175426   0.2690765), wk =   0.0133333
        k(   49) = (   0.1500000  -0.2020726   0.0538153), wk =   0.0133333
        k(   50) = (   0.1500000  -0.2020726   0.1614459), wk =   0.0133333
        k(   51) = (   0.1500000  -0.2020726   0.2690765), wk =   0.0133333
        k(   52) = (   0.1500000  -0.0866025   0.0538153), wk =   0.0066667
        k(   53) = (   0.1500000  -0.0866025   0.1614459), wk =   0.0066667
        k(   54) = (   0.1500000  -0.0866025   0.2690765), wk =   0.0066667
        k(   55) = (   0.2500000   0.4330127   0.0538153), wk =   0.0066667
        k(   56) = (   0.2500000   0.4330127   0.1614459), wk =   0.0066667
        k(   57) = (   0.2500000   0.4330127   0.2690765), wk =   0.0066667
        k(   58) = (   0.2500000   0.5484828   0.0538153), wk =   0.0133333
        k(   59) = (   0.2500000   0.5484828   0.1614459), wk =   0.0133333
        k(   60) = (   0.2500000   0.5484828   0.2690765), wk =   0.0133333
[...]
        k(   76) = (   0.3500000   0.7216878   0.0538153), wk =   0.0133333
        k(   77) = (   0.3500000   0.7216878   0.1614459), wk =   0.0133333
        k(   78) = (   0.3500000   0.7216878   0.2690765), wk =   0.0133333
        k(   79) = (   0.3500000  -0.3175426   0.0538153), wk =   0.0133333
        k(   80) = (   0.3500000  -0.3175426   0.1614459), wk =   0.0133333
        k(   81) = (   0.3500000  -0.3175426   0.2690765), wk =   0.0133333
        k(   82) = (   0.3500000  -0.2020726   0.0538153), wk =   0.0066667
        k(   83) = (   0.3500000  -0.2020726   0.1614459), wk =   0.0066667
        k(   84) = (   0.3500000  -0.2020726   0.2690765), wk =   0.0066667
        k(   85) = (   0.4500000   0.7794229   0.0538153), wk =   0.0066667
        k(   86) = (   0.4500000   0.7794229   0.1614459), wk =   0.0066667
        k(   87) = (   0.4500000   0.7794229   0.2690765), wk =   0.0066667
        k(   88) = (   0.4500000  -0.2598076   0.0538153), wk =   0.0066667
        k(   89) = (   0.4500000  -0.2598076   0.1614459), wk =   0.0066667
        k(   90) = (   0.4500000  -0.2598076   0.2690765), wk =   0.0066667

     Check: negative core charge=   -0.000004

     Initial potential from superposition of free atoms

     starting charge   21.99183, renormalised to   22.00000

     negative rho (up, down):  0.000E+00 3.957E-01
     Starting wfcs are   26 randomized atomic wfcs
     Checking if some PAW data can be deallocated...

     Self-consistent Calculation

     iteration #  1     ecut=    38.00 Ry     beta= 0.70
     Davidson diagonalization with overlap
     ethr =  1.00E-02,  avg # of iterations =  2.0

     total energy              =    -564.65109077 Ry
     Harris-Foulkes estimate   =    -561.86107629 Ry
     estimated scf accuracy    <       1.30915415 Ry

     total magnetization       =     5.85 Bohr mag/cell
     absolute magnetization    =     5.85 Bohr mag/cell

[...]

     Magnetic moment per site:
     atom:    1    charge:    9.5038    magn:    0.0648    constr:    0.0000
     atom:    2    charge:    9.5038    magn:    0.0648    constr:    0.0000

     End of self-consistent calculation

     Number of k-points >= 100: set verbosity='high' to print the bands.

     the Fermi energy is     9.5089 ev

!    total energy              =    -565.20196836 Ry
     Harris-Foulkes estimate   =    -565.20196399 Ry
     estimated scf accuracy    <       0.00000059 Ry

     total all-electron energy =    -13541.448516 Ry

     The total energy is the sum of the following terms:

     one-electron contribution =     -38.54845151 Ry
     hartree contribution      =      26.39795845 Ry
     xc contribution           =     -35.67634020 Ry
     ewald contribution        =    -115.44312829 Ry
     one-center paw contrib.   =    -401.93100351 Ry
     smearing contrib. (-TS)   =      -0.00100330 Ry

[...]

     convergence has been achieved in  10 iterations

     Forces acting on atoms (cartesian axes, Ry/au):

     atom    1 type  1   force =     0.00000000    0.00000000    0.00000000
     atom    2 type  1   force =     0.00000000    0.00000000    0.00000000

     Total force =     0.000000     Total SCF correction =     0.000000

     Computing stress (Cartesian axis) and pressure

          total   stress  (Ry/bohr**3)                   (kbar)     P=   -0.30
  -0.00001043  -0.00000000   0.00000000         -1.53     -0.00      0.00
  -0.00000000  -0.00001043   0.00000000         -0.00     -1.53      0.00
   0.00000000   0.00000000   0.00001465          0.00      0.00      2.16

     BFGS Geometry Optimization

     number of scf cycles    =   1
     number of bfgs steps    =   0

     enthalpy new            =    -565.2019683641 Ry

     new trust radius        =       0.0015424582 bohr
     new conv_thr            =       0.0000010000 Ry

     new unit-cell volume =    443.25787 a.u.^3 (    65.68404 Ang^3 )
     density =      4.49516 g/cm^3

CELL_PARAMETERS (alat=  6.91448902)
   0.999739351  -0.000000000   0.000000000
  -0.499869676   0.865799675   0.000000000
   0.000000000   0.000000000   1.549073334

ATOMIC_POSITIONS (crystal)
Y        0.666666667   0.333333333   0.750000000
Y        0.333333333   0.666666667   0.250000000

     Writing output data file pw.save/
     NEW-OLD atomic charge density approx. for the potential

     Check: negative core charge=   -0.000004
     extrapolated charge   21.99659, renormalised to   22.00000

[...]

     Threshold (ethr) on eigenvalues was too large:
     Diagonalizing with lowered threshold

     Davidson diagonalization with overlap
     ethr =  1.75E-09,  avg # of iterations =  2.8

[...]

     enthalpy old            =    -565.2019683641 Ry
     enthalpy new            =    -565.2019786694 Ry

     CASE: enthalpy_new < enthalpy_old

[...]

     new trust radius        =       0.0002326764 bohr
     new conv_thr            =       0.0000000100 Ry

[...]

     number of scf cycles    =   6
     number of bfgs steps    =   5

     enthalpy old            =    -565.2020254272 Ry
     enthalpy new            =    -565.2020255505 Ry

     CASE: enthalpy_new < enthalpy_old

     WARNING: bfgs curvature condition failed, Theta= 0.862
     new trust radius        =       0.0002559436 bohr
     new conv_thr            =       0.0000000100 Ry

     new unit-cell volume =    442.86397 a.u.^3 (    65.62567 Ang^3 )
     density =      4.49916 g/cm^3

[...]

ATOMIC_POSITIONS (crystal)
Y        0.666666667   0.333333333   0.750000000
Y        0.333333333   0.666666667   0.250000000

     Writing output data file pw.save/
     NEW-OLD atomic charge density approx. for the potential

     Check: negative core charge=   -0.000004
     extrapolated charge   21.99666, renormalised to   22.00000

[...]

     Threshold (ethr) on eigenvalues was too large:
     Diagonalizing with lowered threshold

     Davidson diagonalization with overlap
     ethr =  1.69E-09,  avg # of iterations =  2.2

[...]

     bfgs converged in   7 scf cycles and   6 bfgs steps
     (criteria: energy <  1.0E-04 Ry, force <  1.0E-03Ry/Bohr, cell <  5.0E-01kbar)

     End of BFGS Geometry Optimization

     Final enthalpy =    -565.2020256958 Ry
Begin final coordinates
     new unit-cell volume =    442.86397 a.u.^3 (    65.62567 Ang^3 )
     density =      4.49916 g/cm^3

CELL_PARAMETERS (alat=  6.91448902)
   0.998010735   0.000000000  -0.000000000
  -0.499005367   0.864302649  -0.000000000
   0.000000000   0.000000000   1.553062786

ATOMIC_POSITIONS (crystal)
Y        0.666666667   0.333333333   0.750000000
Y        0.333333333   0.666666667   0.250000000
End final coordinates

     Writing output data file pw.save/

     A final scf calculation at the relaxed structure.
     The G-vectors are recalculated for the final unit cell
     Results may differ from those at the preceding step.

     bravais-lattice index     =            0
     lattice parameter (alat)  =       6.9145  a.u.
     unit-cell volume          =     442.8640 (a.u.)^3
     number of atoms/cell      =            2
     number of atomic types    =            1
     number of electrons       =        22.00
     number of Kohn-Sham states=           15
     kinetic-energy cutoff     =      38.0000  Ry
     charge density cutoff     =     257.0000  Ry
     convergence threshold     =      1.0E-08
     mixing beta               =       0.7000
     number of iterations used =            8  plain     mixing
     Exchange-correlation      = SLA PW PBX PBC ( 1  4  3  4 0 0)

     celldm(1)=   6.914489  celldm(2)=   0.000000  celldm(3)=   0.000000
     celldm(4)=   0.000000  celldm(5)=   0.000000  celldm(6)=   0.000000

     crystal axes: (cart. coord. in units of alat)
               a(1) = (   0.998011   0.000000  -0.000000 )
               a(2) = (  -0.499005   0.864303  -0.000000 )
               a(3) = (   0.000000   0.000000   1.553063 )

     reciprocal axes: (cart. coord. in units 2 pi/alat)
               b(1) = (  1.001993  0.578501 -0.000000 )
               b(2) = ( -0.000000  1.157002 -0.000000 )
               b(3) = (  0.000000  0.000000  0.643889 )

     PseudoPot. # 1 for Y  read from file:
     ./potentials/Y.pbe-spn-kjpaw_psl.1.0.0.UPF
     MD5 check sum: d52e8d8ffa9ef5a9f13bb13aaba2e897
     Pseudo is Projector augmented-wave + core cor, Zval = 11.0
     Generated using "atomic" code by A. Dal Corso v.6.2.2
     Shape of augmentation charge: PSQ
     Using radial grid of 1223 points,  6 beta functions with:
                l(1) =   0
                l(2) =   0
                l(3) =   1
                l(4) =   1
                l(5) =   2
                l(6) =   2
     Q(r) pseudized with 0 coefficients

     atomic species   valence    mass     pseudopotential
        Y             11.00    88.90500     Y ( 1.00)

     Starting magnetic structure
     atomic species   magnetization
        Y           -0.000

     24 Sym. Ops., with inversion, found (12 have fractional translation)

   Cartesian axes

     site n.     atom                  positions (alat units)
         1           Y   tau(   1) = (   0.4990054   0.2881009   1.1647971  )
         2           Y   tau(   2) = (  -0.0000000   0.5762018   0.3882657  )

     number of k points=    90  Methfessel-Paxton smearing, width (Ry)=  0.0200
                       cart. coord. in units 2pi/alat
        k(    1) = (   0.0500997   0.0867752   0.0536574), wk =   0.0066667
        k(    2) = (   0.0500997   0.0867752   0.1609722), wk =   0.0066667
        k(    3) = (   0.0500997   0.0867752   0.2682871), wk =   0.0066667
        k(    4) = (   0.0500997   0.2024754   0.0536574), wk =   0.0133333
        k(    5) = (   0.0500997   0.2024754   0.1609722), wk =   0.0133333
        k(    6) = (   0.0500997   0.2024754   0.2682871), wk =   0.0133333
        k(    7) = (   0.0500997   0.3181756   0.0536574), wk =   0.0133333
        k(    8) = (   0.0500997   0.3181756   0.1609722), wk =   0.0133333
        k(    9) = (   0.0500997   0.3181756   0.2682871), wk =   0.0133333
        k(   10) = (   0.0500997   0.4338758   0.0536574), wk =   0.0133333
        k(   11) = (   0.0500997   0.4338758   0.1609722), wk =   0.0133333
        k(   12) = (   0.0500997   0.4338758   0.2682871), wk =   0.0133333
        k(   13) = (   0.0500997   0.5495760   0.0536574), wk =   0.0133333
        k(   14) = (   0.0500997   0.5495760   0.1609722), wk =   0.0133333
        k(   15) = (   0.0500997   0.5495760   0.2682871), wk =   0.0133333
        k(   16) = (   0.0500997  -0.4917259   0.0536574), wk =   0.0133333
        k(   17) = (   0.0500997  -0.4917259   0.1609722), wk =   0.0133333
        k(   18) = (   0.0500997  -0.4917259   0.2682871), wk =   0.0133333
        k(   19) = (   0.0500997  -0.3760257   0.0536574), wk =   0.0133333
        k(   20) = (   0.0500997  -0.3760257   0.1609722), wk =   0.0133333
        k(   21) = (   0.0500997  -0.3760257   0.2682871), wk =   0.0133333
        k(   22) = (   0.0500997  -0.2603255   0.0536574), wk =   0.0133333
        k(   23) = (   0.0500997  -0.2603255   0.1609722), wk =   0.0133333
        k(   24) = (   0.0500997  -0.2603255   0.2682871), wk =   0.0133333
        k(   25) = (   0.0500997  -0.1446253   0.0536574), wk =   0.0133333
        k(   26) = (   0.0500997  -0.1446253   0.1609722), wk =   0.0133333
        k(   27) = (   0.0500997  -0.1446253   0.2682871), wk =   0.0133333
        k(   28) = (   0.0500997  -0.0289251   0.0536574), wk =   0.0066667
        k(   29) = (   0.0500997  -0.0289251   0.1609722), wk =   0.0066667
        k(   30) = (   0.0500997  -0.0289251   0.2682871), wk =   0.0066667
        k(   31) = (   0.1502990   0.2603255   0.0536574), wk =   0.0066667
        k(   32) = (   0.1502990   0.2603255   0.1609722), wk =   0.0066667
        k(   33) = (   0.1502990   0.2603255   0.2682871), wk =   0.0066667
        k(   34) = (   0.1502990   0.3760257   0.0536574), wk =   0.0133333
        k(   35) = (   0.1502990   0.3760257   0.1609722), wk =   0.0133333
        k(   36) = (   0.1502990   0.3760257   0.2682871), wk =   0.0133333
        k(   37) = (   0.1502990   0.4917259   0.0536574), wk =   0.0133333
        k(   38) = (   0.1502990   0.4917259   0.1609722), wk =   0.0133333
        k(   39) = (   0.1502990   0.4917259   0.2682871), wk =   0.0133333
        k(   40) = (   0.1502990   0.6074261   0.0536574), wk =   0.0133333
        k(   41) = (   0.1502990   0.6074261   0.1609722), wk =   0.0133333
        k(   42) = (   0.1502990   0.6074261   0.2682871), wk =   0.0133333
        k(   43) = (   0.1502990  -0.4338758   0.0536574), wk =   0.0133333
        k(   44) = (   0.1502990  -0.4338758   0.1609722), wk =   0.0133333
        k(   45) = (   0.1502990  -0.4338758   0.2682871), wk =   0.0133333
        k(   46) = (   0.1502990  -0.3181756   0.0536574), wk =   0.0133333
        k(   47) = (   0.1502990  -0.3181756   0.1609722), wk =   0.0133333
        k(   48) = (   0.1502990  -0.3181756   0.2682871), wk =   0.0133333
        k(   49) = (   0.1502990  -0.2024754   0.0536574), wk =   0.0133333
        k(   50) = (   0.1502990  -0.2024754   0.1609722), wk =   0.0133333
        k(   51) = (   0.1502990  -0.2024754   0.2682871), wk =   0.0133333
        k(   52) = (   0.1502990  -0.0867752   0.0536574), wk =   0.0066667
        k(   53) = (   0.1502990  -0.0867752   0.1609722), wk =   0.0066667
        k(   54) = (   0.1502990  -0.0867752   0.2682871), wk =   0.0066667
        k(   55) = (   0.2504983   0.4338758   0.0536574), wk =   0.0066667
        k(   56) = (   0.2504983   0.4338758   0.1609722), wk =   0.0066667
        k(   57) = (   0.2504983   0.4338758   0.2682871), wk =   0.0066667
        k(   58) = (   0.2504983   0.5495760   0.0536574), wk =   0.0133333
        k(   59) = (   0.2504983   0.5495760   0.1609722), wk =   0.0133333
        k(   60) = (   0.2504983   0.5495760   0.2682871), wk =   0.0133333
[...]
        k(   76) = (   0.3506976   0.7231263   0.0536574), wk =   0.0133333
        k(   77) = (   0.3506976   0.7231263   0.1609722), wk =   0.0133333
        k(   78) = (   0.3506976   0.7231263   0.2682871), wk =   0.0133333
        k(   79) = (   0.3506976  -0.3181756   0.0536574), wk =   0.0133333
        k(   80) = (   0.3506976  -0.3181756   0.1609722), wk =   0.0133333
        k(   81) = (   0.3506976  -0.3181756   0.2682871), wk =   0.0133333
        k(   82) = (   0.3506976  -0.2024754   0.0536574), wk =   0.0066667
        k(   83) = (   0.3506976  -0.2024754   0.1609722), wk =   0.0066667
        k(   84) = (   0.3506976  -0.2024754   0.2682871), wk =   0.0066667
        k(   85) = (   0.4508970   0.7809764   0.0536574), wk =   0.0066667
        k(   86) = (   0.4508970   0.7809764   0.1609722), wk =   0.0066667
        k(   87) = (   0.4508970   0.7809764   0.2682871), wk =   0.0066667
        k(   88) = (   0.4508970  -0.2603255   0.0536574), wk =   0.0066667
        k(   89) = (   0.4508970  -0.2603255   0.1609722), wk =   0.0066667
        k(   90) = (   0.4508970  -0.2603255   0.2682871), wk =   0.0066667

     Check: negative core charge=   -0.000004

     Initial potential from superposition of free atoms

     starting charge   21.99183, renormalised to   22.00000
     Starting wfcs are   26 randomized atomic wfcs
     Checking if some PAW data can be deallocated...

     Self-consistent Calculation

[...]

     total energy              =    -565.20202175 Ry
     Harris-Foulkes estimate   =    -565.20202176 Ry
     estimated scf accuracy    <       0.00000004 Ry

[...]

     iteration #  6     ecut=    38.00 Ry     beta= 0.70
     Davidson diagonalization with overlap
     ethr =  1.77E-10,  avg # of iterations =  2.8

     Magnetic moment per site:
     atom:    1    charge:    9.5049    magn:   -0.0000    constr:    0.0000
     atom:    2    charge:    9.5049    magn:   -0.0000    constr:    0.0000

     End of self-consistent calculation

     Number of k-points >= 100: set verbosity='high' to print the bands.

     the Fermi energy is     9.5230 ev

!    total energy              =    -565.20202175 Ry
     Harris-Foulkes estimate   =    -565.20202175 Ry
     estimated scf accuracy    <          4.4E-09 Ry

     total all-electron energy =    -13541.448569 Ry

     The total energy is the sum of the following terms:

     one-electron contribution =     -38.47588093 Ry
     hartree contribution      =      26.37330201 Ry
     xc contribution           =     -35.67653313 Ry
     ewald contribution        =    -115.49094997 Ry
     one-center paw contrib.   =    -401.93084950 Ry
     smearing contrib. (-TS)   =      -0.00111023 Ry

     total magnetization       =    -0.00 Bohr mag/cell
     absolute magnetization    =     0.00 Bohr mag/cell

     convergence has been achieved in   6 iterations

     Forces acting on atoms (cartesian axes, Ry/au):

     atom    1 type  1   force =     0.00000000    0.00000000    0.00000000
     atom    2 type  1   force =     0.00000000    0.00000000    0.00000000

     Total force =     0.000000     Total SCF correction =     0.000000

     Computing stress (Cartesian axis) and pressure

          total   stress  (Ry/bohr**3)                   (kbar)     P=   -0.34
  -0.00000213  -0.00000000  -0.00000000         -0.31     -0.00     -0.00
  -0.00000000  -0.00000213  -0.00000000         -0.00     -0.31     -0.00
  -0.00000000  -0.00000000  -0.00000265         -0.00     -0.00     -0.39

     Writing output data file pw.save/

     General routines

     Parallel routines

   This run was terminated on:  11:42:21   6Nov2020

   JOB DONE.