     Program PWSCF v.6.4.1 starts on  6Nov2020 at 11:49:24

     R & G space division:  proc/nbgrp/npool/nimage =       2
     Waiting for input...
     Reading input from standard input

     Current dimensions of program PWSCF are:
     Max number of different atomic species (ntypx) = 10
     Max number of k-points (npk) =  40000
     Max angular momentum in pseudopotentials (lmaxx) =  3
               file Zn.pbe-dnl-kjpaw_psl.1.0.0.UPF: wavefunction(s)  4S 3D renormalized

     Subspace diagonalization in iterative solution of the eigenvalue problem:
     a serial algorithm will be used

     Message from routine setup:
     DEPRECATED: symmetry with ibrav=0, use correct ibrav instead

     bravais-lattice index     =            0
     lattice parameter (alat)  =       4.9638  a.u.
     unit-cell volume          =     209.9738 (a.u.)^3
     number of atoms/cell      =            2
     number of atomic types    =            1
     number of electrons       =        24.00
     number of Kohn-Sham states=           16
     kinetic-energy cutoff     =      44.0000  Ry
     charge density cutoff     =     276.0000  Ry
     convergence threshold     =      1.0E-06
     mixing beta               =       0.7000
     number of iterations used =            8  plain     mixing
     Exchange-correlation      = SLA PW PBX PBC ( 1  4  3  4 0 0)
     nstep                     =           50

     celldm(1)=   4.963800  celldm(2)=   0.000000  celldm(3)=   0.000000
     celldm(4)=   0.000000  celldm(5)=   0.000000  celldm(6)=   0.000000

     crystal axes: (cart. coord. in units of alat)
               a(1) = (   1.000000   0.000000   0.000000 )
               a(2) = (  -0.500000   0.866025   0.000000 )
               a(3) = (   0.000000   0.000000   1.982401 )

     reciprocal axes: (cart. coord. in units 2 pi/alat)
               b(1) = (  1.000000  0.577350 -0.000000 )
               b(2) = (  0.000000  1.154701  0.000000 )
               b(3) = (  0.000000 -0.000000  0.504439 )

     PseudoPot. # 1 for Zn read from file:
     ./potentials/Zn.pbe-dnl-kjpaw_psl.1.0.0.UPF
     MD5 check sum: c608214d9520ac179f507641260889e3
     Pseudo is Projector augmented-wave + core cor, Zval = 12.0
     Generated using "atomic" code by A. Dal Corso v.6.2.2
     Shape of augmentation charge: PSQ
     Using radial grid of 1201 points,  6 beta functions with:
                l(1) =   0
                l(2) =   0
                l(3) =   1
                l(4) =   1
                l(5) =   2
                l(6) =   2
     Q(r) pseudized with 0 coefficients

     atomic species   valence    mass     pseudopotential
        Zn            12.00    65.38000     Zn( 1.00)

     Starting magnetic structure
     atomic species   magnetization
        Zn           1.000

     24 Sym. Ops., with inversion, found (12 have fractional translation)

   Cartesian axes

     site n.     atom                  positions (alat units)
         1           Zn  tau(   1) = (   0.5000000   0.2886751   1.4868010  )
         2           Zn  tau(   2) = (  -0.0000000   0.5773503   0.4956003  )

     number of k points=   168  Methfessel-Paxton smearing, width (Ry)=  0.0200

     Number of k-points >= 100: set verbosity='high' to print them.

     Check: negative core charge=   -0.000005

     Initial potential from superposition of free atoms

     starting charge   23.99255, renormalised to   24.00000

     negative rho (up, down):  0.000E+00 1.409E-01
     Starting wfcs are   18 randomized atomic wfcs
     Checking if some PAW data can be deallocated...

     Self-consistent Calculation

     iteration #  1     ecut=    44.00 Ry     beta= 0.70
     Davidson diagonalization with overlap
     ethr =  1.00E-02,  avg # of iterations =  3.2

     total energy              =    -486.78902674 Ry
     Harris-Foulkes estimate   =    -483.29790352 Ry
     estimated scf accuracy    <       9.14578256 Ry

     total magnetization       =     1.81 Bohr mag/cell
     absolute magnetization    =     1.81 Bohr mag/cell

[...]

     Magnetic moment per site:
     atom:    1    charge:   10.6337    magn:    0.0000    constr:    0.0000
     atom:    2    charge:   10.6337    magn:    0.0000    constr:    0.0000

     End of self-consistent calculation

     Number of k-points >= 100: set verbosity='high' to print the bands.

     the Fermi energy is    10.6293 ev

!    total energy              =    -487.43612419 Ry
     Harris-Foulkes estimate   =    -487.43612425 Ry
     estimated scf accuracy    <       0.00000018 Ry

     total all-electron energy =     -7184.230170 Ry

     The total energy is the sum of the following terms:

     one-electron contribution =    -119.94127970 Ry
     hartree contribution      =      92.92671890 Ry
     xc contribution           =     -94.36107628 Ry
     ewald contribution        =    -175.18284612 Ry
     one-center paw contrib.   =    -190.87755458 Ry
     smearing contrib. (-TS)   =      -0.00008641 Ry

[...]

     convergence has been achieved in   7 iterations

     Forces acting on atoms (cartesian axes, Ry/au):

     atom    1 type  1   force =     0.00000000    0.00000000    0.00000000
     atom    2 type  1   force =     0.00000000    0.00000000    0.00000000

     Total force =     0.000000     Total SCF correction =     0.000000

     Computing stress (Cartesian axis) and pressure

          total   stress  (Ry/bohr**3)                   (kbar)     P=  -17.54
  -0.00008980   0.00000000   0.00000000        -13.21      0.00      0.00
   0.00000000  -0.00008980  -0.00000000          0.00    -13.21     -0.00
   0.00000000   0.00000000  -0.00017808          0.00      0.00    -26.20

     BFGS Geometry Optimization

     number of scf cycles    =   1
     number of bfgs steps    =   0

     enthalpy new            =    -487.4361241871 Ry

     new trust radius        =       0.0129025056 bohr
     new conv_thr            =       0.0000010000 Ry

     new unit-cell volume =    208.10148 a.u.^3 (    30.83746 Ang^3 )
     density =      7.04118 g/cm^3

CELL_PARAMETERS (alat=  4.96380033)
   0.997755062   0.000000000   0.000000000
  -0.498877531   0.864081230   0.000000000
   0.000000000  -0.000000000   1.973575559

ATOMIC_POSITIONS (crystal)
Zn       0.666666667   0.333333333   0.750000000
Zn       0.333333333   0.666666667   0.250000000

     Writing output data file pw.save/
     NEW-OLD atomic charge density approx. for the potential

     Check: negative core charge=   -0.000004
     extrapolated charge   23.78414, renormalised to   24.00000

[...]

     enthalpy old            =    -487.4361241871 Ry
     enthalpy new            =    -487.4362583942 Ry

     CASE: enthalpy_new < enthalpy_old

[...]

     CASE: enthalpy_new < enthalpy_old

[...]

     number of scf cycles    =  12
     number of bfgs steps    =  11

     enthalpy old            =    -487.4375986883 Ry
     enthalpy new            =    -487.4375983771 Ry

     CASE: enthalpy_new > enthalpy_old

     new trust radius        =       0.0003293181 bohr
     new conv_thr            =       0.0000000100 Ry

     new unit-cell volume =    200.44632 a.u.^3 (    29.70308 Ang^3 )
     density =      7.31009 g/cm^3

[...]

ATOMIC_POSITIONS (crystal)
Zn       0.666666667   0.333333333   0.750000000
Zn       0.333333333   0.666666667   0.250000000

     Writing output data file pw.save/
     NEW-OLD atomic charge density approx. for the potential

     Check: negative core charge=   -0.000003
     extrapolated charge   23.99089, renormalised to   24.00000

[...]

Begin final coordinates
     new unit-cell volume =    200.44632 a.u.^3 (    29.70308 Ang^3 )
     density =      7.31009 g/cm^3

[...]

ATOMIC_POSITIONS (crystal)
Zn       0.666666667   0.333333333   0.750000000
Zn       0.333333333   0.666666667   0.250000000
End final coordinates

     Writing output data file pw.save/

     lsda relaxation :  a final configuration with zero
                        absolute magnetization has been found

     the program is checking if it is really the minimum energy structure
     by performing a new scf iteration without any "electronic" history

[...]

     starting charge   23.99255, renormalised to   24.00000

     negative rho (up, down):  0.000E+00 1.110E-01

[...]

     bfgs converged in  13 scf cycles and  11 bfgs steps
     (criteria: energy <  1.0E-04 Ry, force <  1.0E-03Ry/Bohr, cell <  5.0E-01kbar)

     End of BFGS Geometry Optimization

     Final enthalpy =    -487.4375986099 Ry
Begin final coordinates
     new unit-cell volume =    200.44632 a.u.^3 (    29.70308 Ang^3 )
     density =      7.31009 g/cm^3

CELL_PARAMETERS (alat=  4.96380033)
   1.011127553  -0.000000000   0.000000000
  -0.505563777   0.875662147   0.000000000
   0.000000000  -0.000000000   1.851026554

ATOMIC_POSITIONS (crystal)
Zn       0.666666667   0.333333333   0.750000000
Zn       0.333333333   0.666666667   0.250000000
End final coordinates

[...]

     A final scf calculation at the relaxed structure.
     The G-vectors are recalculated for the final unit cell
     Results may differ from those at the preceding step.

     bravais-lattice index     =            0
     lattice parameter (alat)  =       4.9638  a.u.
     unit-cell volume          =     200.4463 (a.u.)^3
     number of atoms/cell      =            2
     number of atomic types    =            1
     number of electrons       =        24.00
     number of Kohn-Sham states=           16
     kinetic-energy cutoff     =      44.0000  Ry
     charge density cutoff     =     276.0000  Ry
     convergence threshold     =      1.0E-08
     mixing beta               =       0.7000
     number of iterations used =            8  plain     mixing
     Exchange-correlation      = SLA PW PBX PBC ( 1  4  3  4 0 0)

     celldm(1)=   4.963800  celldm(2)=   0.000000  celldm(3)=   0.000000
     celldm(4)=   0.000000  celldm(5)=   0.000000  celldm(6)=   0.000000

     crystal axes: (cart. coord. in units of alat)
               a(1) = (   1.011128  -0.000000   0.000000 )
               a(2) = (  -0.505564   0.875662   0.000000 )
               a(3) = (   0.000000  -0.000000   1.851027 )

     reciprocal axes: (cart. coord. in units 2 pi/alat)
               b(1) = (  0.988995  0.570996 -0.000000 )
               b(2) = (  0.000000  1.141993  0.000000 )
               b(3) = ( -0.000000 -0.000000  0.540241 )

     PseudoPot. # 1 for Zn read from file:
     ./potentials/Zn.pbe-dnl-kjpaw_psl.1.0.0.UPF
     MD5 check sum: c608214d9520ac179f507641260889e3
     Pseudo is Projector augmented-wave + core cor, Zval = 12.0
     Generated using "atomic" code by A. Dal Corso v.6.2.2
     Shape of augmentation charge: PSQ
     Using radial grid of 1201 points,  6 beta functions with:
                l(1) =   0
                l(2) =   0
                l(3) =   1
                l(4) =   1
                l(5) =   2
                l(6) =   2
     Q(r) pseudized with 0 coefficients

     atomic species   valence    mass     pseudopotential
        Zn            12.00    65.38000     Zn( 1.00)

     Starting magnetic structure
     atomic species   magnetization
        Zn           0.000

     24 Sym. Ops., with inversion, found (12 have fractional translation)

   Cartesian axes

     site n.     atom                  positions (alat units)
         1           Zn  tau(   1) = (   0.5055638   0.2918874   1.3882699  )
         2           Zn  tau(   2) = (  -0.0000000   0.5837748   0.4627566  )

     number of k points=   168  Methfessel-Paxton smearing, width (Ry)=  0.0200

     Number of k-points >= 100: set verbosity='high' to print them.

     Check: negative core charge=   -0.000004

     Initial potential from superposition of free atoms

     starting charge   23.99255, renormalised to   24.00000
     Starting wfcs are   18 randomized atomic wfcs
     Checking if some PAW data can be deallocated...

     Self-consistent Calculation

[...]

     total energy              =    -487.43686408 Ry
     Harris-Foulkes estimate   =    -487.43686408 Ry
     estimated scf accuracy    <       0.00000006 Ry

[...]

     iteration #  6     ecut=    44.00 Ry     beta= 0.70
     Davidson diagonalization with overlap
     ethr =  2.40E-10,  avg # of iterations =  2.0

     Magnetic moment per site:
     atom:    1    charge:   10.6448    magn:   -0.0000    constr:    0.0000
     atom:    2    charge:   10.6448    magn:   -0.0000    constr:    0.0000

     End of self-consistent calculation

     Number of k-points >= 100: set verbosity='high' to print the bands.

     the Fermi energy is    11.5620 ev

!    total energy              =    -487.43686409 Ry
     Harris-Foulkes estimate   =    -487.43686409 Ry
     estimated scf accuracy    <          6.0E-10 Ry

     total all-electron energy =     -7184.230910 Ry

     The total energy is the sum of the following terms:

     one-electron contribution =    -113.99051948 Ry
     hartree contribution      =      90.52854480 Ry
     xc contribution           =     -94.39013541 Ry
     ewald contribution        =    -178.70670204 Ry
     one-center paw contrib.   =    -190.87810948 Ry
     smearing contrib. (-TS)   =       0.00005753 Ry

     total magnetization       =     0.00 Bohr mag/cell
     absolute magnetization    =     0.00 Bohr mag/cell

     convergence has been achieved in   6 iterations

     Forces acting on atoms (cartesian axes, Ry/au):

     atom    1 type  1   force =    -0.00000000   -0.00000000    0.00000000
     atom    2 type  1   force =     0.00000000    0.00000000   -0.00000000

     Total force =     0.000000     Total SCF correction =     0.000000

     Computing stress (Cartesian axis) and pressure

          total   stress  (Ry/bohr**3)                   (kbar)     P=    3.98
   0.00001075   0.00000000  -0.00000000          1.58      0.00     -0.00
   0.00000000   0.00001075   0.00000000          0.00      1.58      0.00
  -0.00000000  -0.00000000   0.00005971         -0.00     -0.00      8.78

     Writing output data file pw.save/

     General routines

     Parallel routines

   This run was terminated on:  12:58:34   6Nov2020

   JOB DONE.